 C  H  N                                
   1.00000000000000     
    15.0000000000000000    0.0000000000000000    0.0000000000000000
     0.0000000000000000   15.0000000000000000    0.0000000000000000
     0.0000000000000000    0.0000000000000000   15.0000000000000000
   C    H    N 
     8     8     2
Direct
  0.3807722748505687  0.5328004255721128  0.6097083138350395
  0.3953270576500625  0.4369312869361494  0.6194921893832185
  0.4718332430490487  0.3963396033988092  0.6430224372591955
  0.4394863580573937  0.5982359662717565  0.6278014908441187
  0.5324687388534076  0.5254987579782386  0.4419277234080314
  0.5284291579199676  0.4353048300602629  0.4428193650458012
  0.6054111953770260  0.5725064855941986  0.4793632054716054
  0.4544600033338744  0.3874718230369078  0.4085590008082915
  0.3379400101197882  0.3948592853763824  0.6033932176269337
  0.5323586908539295  0.4335405767920886  0.6592019729648643
  0.4758366298238221  0.3238771846346921  0.6474089504092224
  0.3151491975198120  0.5518773054263676  0.5840737715124713
  0.5059508181227288  0.5850356817460373  0.6544497310790698
  0.4222726881876661  0.6681019983261133  0.6173283069532065
  0.4783606769681416  0.5652714217642359  0.4138655235194441
  0.5824437236258466  0.3957319227061940  0.4714019747730255
  0.6646334200595151  0.6120567748594085  0.5113664108134176
  0.3937958738349072  0.3464188595935274  0.3815966253432853
 
  0.00000000E+00  0.00000000E+00  0.00000000E+00
  0.00000000E+00  0.00000000E+00  0.00000000E+00
  0.00000000E+00  0.00000000E+00  0.00000000E+00
  0.00000000E+00  0.00000000E+00  0.00000000E+00
  0.00000000E+00  0.00000000E+00  0.00000000E+00
  0.00000000E+00  0.00000000E+00  0.00000000E+00
  0.00000000E+00  0.00000000E+00  0.00000000E+00
  0.00000000E+00  0.00000000E+00  0.00000000E+00
  0.00000000E+00  0.00000000E+00  0.00000000E+00
  0.00000000E+00  0.00000000E+00  0.00000000E+00
  0.00000000E+00  0.00000000E+00  0.00000000E+00
  0.00000000E+00  0.00000000E+00  0.00000000E+00
  0.00000000E+00  0.00000000E+00  0.00000000E+00
  0.00000000E+00  0.00000000E+00  0.00000000E+00
  0.00000000E+00  0.00000000E+00  0.00000000E+00
  0.00000000E+00  0.00000000E+00  0.00000000E+00
  0.00000000E+00  0.00000000E+00  0.00000000E+00
  0.00000000E+00  0.00000000E+00  0.00000000E+00
