 C  H  N                                
   1.00000000000000     
    15.0000000000000000    0.0000000000000000    0.0000000000000000
     0.0000000000000000   15.0000000000000000    0.0000000000000000
     0.0000000000000000    0.0000000000000000   15.0000000000000000
   C    H    N 
     8     8     2
Direct
  0.3767674063844098  0.5432730541782718  0.5730375561825483
  0.3775196694597724  0.4550360812244278  0.5598888876976673
  0.4612020433918786  0.4005752974795485  0.5527853561757254
  0.4595118180798750  0.5991474335491631  0.5801588153409227
  0.5432296248858037  0.5488917368559001  0.5473420984832060
  0.5440453871091933  0.4522436136322909  0.5856260311667114
  0.6238420022935856  0.5981165901597691  0.5710351504155966
  0.6254972919270259  0.4044009414324918  0.5619699722542393
  0.3145849079031890  0.4188986724989334  0.5539695072826802
  0.4549046358781581  0.3388985243917872  0.5920499554480472
  0.4717288200251559  0.3787128057210012  0.4833343351466368
  0.3132263979495278  0.5783348324345710  0.5789470093305908
  0.4696526483859884  0.6211873539062154  0.6496119936244540
  0.4521787564162594  0.6607073666284364  0.5408895114531234
  0.5408454950755655  0.5436798322441447  0.4740202614986302
  0.5415478587189284  0.4574112954547047  0.6589470994839459
  0.6866699348417455  0.6387729676544609  0.5919473782133835
  0.6890279733406004  0.3648290478872127  0.5410997825352410
 
  0.00000000E+00  0.00000000E+00  0.00000000E+00
  0.00000000E+00  0.00000000E+00  0.00000000E+00
  0.00000000E+00  0.00000000E+00  0.00000000E+00
  0.00000000E+00  0.00000000E+00  0.00000000E+00
  0.00000000E+00  0.00000000E+00  0.00000000E+00
  0.00000000E+00  0.00000000E+00  0.00000000E+00
  0.00000000E+00  0.00000000E+00  0.00000000E+00
  0.00000000E+00  0.00000000E+00  0.00000000E+00
  0.00000000E+00  0.00000000E+00  0.00000000E+00
  0.00000000E+00  0.00000000E+00  0.00000000E+00
  0.00000000E+00  0.00000000E+00  0.00000000E+00
  0.00000000E+00  0.00000000E+00  0.00000000E+00
  0.00000000E+00  0.00000000E+00  0.00000000E+00
  0.00000000E+00  0.00000000E+00  0.00000000E+00
  0.00000000E+00  0.00000000E+00  0.00000000E+00
  0.00000000E+00  0.00000000E+00  0.00000000E+00
  0.00000000E+00  0.00000000E+00  0.00000000E+00
  0.00000000E+00  0.00000000E+00  0.00000000E+00
