 ENCUT = 400.000000
 GGA = PE
 IVDW = 11

 ISMEAR = 0
 SIGMA = 0.050000
 ALGO = Fast
 ISPIN = 1
 NPAR = 4
 LCHARG = .FALSE.
 LWAVE = .FALSE.  
