 C  H  N 
 1.0000000000000000
    15.0000000000000000    0.0000000000000000    0.0000000000000000
     0.0000000000000000   15.0000000000000000    0.0000000000000000
     0.0000000000000000    0.0000000000000000   15.0000000000000000
 C   H   N  
   8   8   2
Cartesian
  5.6515110957661943  8.1490958126740800  8.5955633427382363
  5.6627950418966249  6.8255412183663751  8.3983333154649742
  6.9180306508781992  6.0086294621932801  8.2917803426358603
  6.8926772711980799  8.9872115032374005  8.7023822301138001
  8.1484443732870435  8.2333760528385298  8.2101314772481047
  8.1606808066379397  6.7836542044843648  8.7843904675006641
  9.3576300344038348  8.9717488523965354  8.5655272562339704
  9.3824593789053896  6.0660141214873651  8.4295495838135395
  4.7187736185478348  6.2834800874839649  8.3095426092401858
  6.8235695381723547  5.0834778658768203  8.8807493317207484
  7.0759323003773549  5.6806920858150454  7.2500150271995247
  4.6983959692429353  8.6750224865186087  8.6842051399588946
  7.0447897257898502  9.3178103085931809  9.7441799043667654
  6.7826813462438844  9.9106104994265554  8.1133426717968753
  8.1126824261335209  8.1551974836621586  7.1103039224794058
  8.1232178807838888  6.8611694318205299  9.8842064922591462
 10.3000490226261743  9.5815945148168851  8.8792106732007436
 10.3354196001090592  5.4724357183081800  8.1164967380286015
