 N  C  H 
 1.0000000000000000
    26.8076000000000008    0.0000000000000000    0.0000000000000000
     0.0000000000000000   17.2400999999999982    0.0000000000000000
     0.0000000000000000    0.0000000000000000   16.8814999999999991
 N   C   H  
   1   8  19
Cartesian
 18.5106162640139829  8.2231103153206195  8.5998597480275798
 13.5237661013423160  8.2525319531794530  8.0037528792644803
 12.1834665046695516  9.0774779399472436  8.0525029012099676
 14.7745398020281886  9.0406459083638140  8.4890218816932066
 10.9743476089591709  8.2420901698919220  8.5251664205193478
 16.0068028948201189  8.1526211502351202  8.3534402402021719
  9.6834129501777753  9.0787803680086050  8.5995288926576272
 17.2633203001778810  9.0095081273928521  8.5242630829264261
  8.4142464909095818  8.1725147244721299  8.7025946557920157
 13.3931522367272038  7.3128224610268466  8.5497733426109939
 13.5714664618773604  8.0074234280466889  6.9959180251555795
 11.9905340736727641  9.4639930642346410  7.1023724148919491
 12.2359902909411478 10.1115164190115809  8.5765389208999530
 14.8881825914671388  9.9934129962293241  7.9846457683224177
 14.8294154293410028  9.3912073516739252  9.5837205614027141
 11.1051536282422223  7.7455892028361468  9.5505811396878748
 10.8934740054034478  7.4141856556657695  7.7621528913660356
 15.9207510427265984  7.3596372675153061  9.0869492210899967
 15.9221307879074008  7.7040021155039069  7.3476840213613794
  9.6389759326086040  9.5826181029697270  7.6112315416804384
  9.8325514776892273  9.7810998683303634  9.4142434500441716
 17.1605997172990250  9.7002189870859112  9.3587268949171403
 17.2934662429197807  9.7756011076939906  7.6680152237351713
  8.3519470037185961  7.3498400804669313  7.9272439830569548
  7.5099652030333832  8.7717177193054354  8.5634720140070524
  8.3285902607558544  7.6177190014021710  9.6630892360339775
 18.7992073746535517  7.9604343823908401  7.6618851633637934
 18.4214323780629279  7.3355695597623507  9.1907179383150837
