 C  H  N                                
   1.00000000000000     
    15.0000000000000000    0.0000000000000000    0.0000000000000000
     0.0000000000000000   15.0000000000000000    0.0000000000000000
     0.0000000000000000    0.0000000000000000   15.0000000000000000
   C    H    N 
     8     8     2
Direct
  0.3722824499876459  0.5429247438012126  0.5879934041825695
  0.3691550864002191  0.4539932417809077  0.5825871077553155
  0.4507060277007609  0.3961030420956121  0.5816563033482751
  0.4599499463247357  0.5912504404109885  0.5881664198364230
  0.5249742682247283  0.5430062629991065  0.5244368269577308
  0.5394332104038823  0.4445287672587865  0.5548252436239144
  0.6099337576801028  0.5902081317421268  0.5184455615553277
  0.5847656129739623  0.3939043708024147  0.4850144254566264
  0.3050214116526293  0.4194909683350605  0.5801457034288352
  0.4604062325349239  0.3677541307522738  0.6488690727016654
  0.4398796369664597  0.3384326528906531  0.5377265041041498
  0.3109054329416476  0.5820399503394613  0.5898608209332620
  0.4894042511610118  0.5932259973486833  0.6556693917661991
  0.4523278011955681  0.6609521964945924  0.5669878104264291
  0.4946617129805988  0.5425192333382485  0.4574325003666557
  0.5842889018640260  0.4464911103254109  0.6130112054583239
  0.6770238754292186  0.6295391060329135  0.5159569133624023
  0.6175913850255123  0.3524530593828150  0.4279001513010515
 
  0.00000000E+00  0.00000000E+00  0.00000000E+00
  0.00000000E+00  0.00000000E+00  0.00000000E+00
  0.00000000E+00  0.00000000E+00  0.00000000E+00
  0.00000000E+00  0.00000000E+00  0.00000000E+00
  0.00000000E+00  0.00000000E+00  0.00000000E+00
  0.00000000E+00  0.00000000E+00  0.00000000E+00
  0.00000000E+00  0.00000000E+00  0.00000000E+00
  0.00000000E+00  0.00000000E+00  0.00000000E+00
  0.00000000E+00  0.00000000E+00  0.00000000E+00
  0.00000000E+00  0.00000000E+00  0.00000000E+00
  0.00000000E+00  0.00000000E+00  0.00000000E+00
  0.00000000E+00  0.00000000E+00  0.00000000E+00
  0.00000000E+00  0.00000000E+00  0.00000000E+00
  0.00000000E+00  0.00000000E+00  0.00000000E+00
  0.00000000E+00  0.00000000E+00  0.00000000E+00
  0.00000000E+00  0.00000000E+00  0.00000000E+00
  0.00000000E+00  0.00000000E+00  0.00000000E+00
  0.00000000E+00  0.00000000E+00  0.00000000E+00
