 C  H  N                                
   1.00000000000000     
    15.4022502898999996    0.0000000000000000    0.0000000000000000
     0.0000000000000000   15.4022502898999996    0.0000000000000000
     0.0000000000000000    0.0000000000000000   15.4022502898999996
   C    H    N 
     7     9     1
Direct
  0.3373088019480475  0.4389208006042105  0.5787994679689722
  0.3358553138275511  0.5337534067851137  0.5814867152264700
  0.4038710278280395  0.5872916608323494  0.5693198633393182
  0.4070075168218008  0.3881999795505228  0.5642105349225455
  0.4469774194268824  0.4404516026708011  0.3783111424720388
  0.4441621976697609  0.5276113291644082  0.3815706374353099
  0.5197185325515720  0.5808019644037732  0.3803877537241817
  0.2743313947674355  0.4071803009887742  0.5877248898147531
  0.4720715410381401  0.4149612176857895  0.5556121140036436
  0.4010088845696044  0.3177322284144711  0.5607162376082873
  0.2720204384053656  0.5629789630040647  0.5926293712834327
  0.4696919322663214  0.5633244365567265  0.5585669948224831
  0.3958495326932822  0.6576401350473621  0.5695815414741217
  0.3874108891280941  0.4025067790026369  0.3809618161418174
  0.5083252066935915  0.4053493669163643  0.3737317239128941
  0.3824840370316284  0.5619664507285187  0.3880333124885992
  0.5808226119138593  0.6260415508203391  0.3804612221516575
 
  0.00000000E+00  0.00000000E+00  0.00000000E+00
  0.00000000E+00  0.00000000E+00  0.00000000E+00
  0.00000000E+00  0.00000000E+00  0.00000000E+00
  0.00000000E+00  0.00000000E+00  0.00000000E+00
  0.00000000E+00  0.00000000E+00  0.00000000E+00
  0.00000000E+00  0.00000000E+00  0.00000000E+00
  0.00000000E+00  0.00000000E+00  0.00000000E+00
  0.00000000E+00  0.00000000E+00  0.00000000E+00
  0.00000000E+00  0.00000000E+00  0.00000000E+00
  0.00000000E+00  0.00000000E+00  0.00000000E+00
  0.00000000E+00  0.00000000E+00  0.00000000E+00
  0.00000000E+00  0.00000000E+00  0.00000000E+00
  0.00000000E+00  0.00000000E+00  0.00000000E+00
  0.00000000E+00  0.00000000E+00  0.00000000E+00
  0.00000000E+00  0.00000000E+00  0.00000000E+00
  0.00000000E+00  0.00000000E+00  0.00000000E+00
  0.00000000E+00  0.00000000E+00  0.00000000E+00
