 C  H  N 
 1.0000000000000000
    15.4022502898999996    0.0000000000000000    0.0000000000000000
     0.0000000000000000   15.4022502898999996    0.0000000000000000
     0.0000000000000000    0.0000000000000000   15.4022502898999996
 C   H   N  
   7   9   1
Cartesian
  5.2051490074139251  6.7597810708777892  8.8816363259967694
  5.1702633888469576  8.2108963053410839  8.9197752507639905
  6.2196949864688627  9.0099111820060944  8.6635042226836720
  6.2994292706981643  6.0305216770745389  8.5984110491837100
  6.8578684114251969  6.7827189528984100  5.9735024626940207
  6.8363750292607666  8.1238722180689642  6.0462543857249855
  8.0077286913041164  8.9208669142172070  5.9898941036412818
  4.2458297122134931  6.2593383672191703  9.0172148018591471
  7.2583089119500110  6.5245707495939502  8.4790442614394461
  6.2750586334392242  4.9518244347848155  8.4702334905707524
  4.1911079353244878  8.6585296984684135  9.0871862972167783
  7.2094051325910469  8.6021179564321155  8.4761099687967043
  6.1357125021225336 10.0905602174768951  8.5915661581776082
  5.9433200789443239  6.2084286721669741  6.0634019865902786
  7.7854834518622367  6.2306067736755262  5.8549866839083684
  5.9102997653401532  8.6682116029882099  6.2049254481724017
  8.9565478634887103  9.6048059456186987  5.9625634562228615
