 N  C  H                                
   1.00000000000000     
    26.8076000000000008    0.0000000000000000    0.0000000000000000
     0.0000000000000000   17.2400999999999982    0.0000000000000000
     0.0000000000000000    0.0000000000000000   16.8814999999999991
   N    C    H 
     1     8    19
Direct
  0.6873567409988226  0.4683720593268035  0.5305960566300385
  0.5027004013787106  0.4866968764682369  0.4560589260433048
  0.4547257020397169  0.5316886299963457  0.4812721286615513
  0.5544505181366475  0.5309801080040160  0.4660080727423477
  0.4082219586982774  0.4791015730767256  0.4956222628320930
  0.5940478345693023  0.4784367231048563  0.5036513183070213
  0.3611829552067292  0.5220870569196236  0.5235562130142455
  0.6456272560766365  0.5163812611295739  0.5082194769422159
  0.3162695403542273  0.4660207446592537  0.5241861588129026
  0.5061240137125296  0.4310594312097962  0.4871649574978534
  0.4951579190229651  0.4691089958874954  0.3942910487812128
  0.4439832398275101  0.5831108671063419  0.4333097580191350
  0.4633251764425026  0.5625714595622995  0.5370663513313403
  0.5681977827183360  0.5562445507856708  0.4110662506293892
  0.5452828694101655  0.5776571551209102  0.5132520546159967
  0.4147070140557148  0.4337722205787671  0.5426614347066305
  0.3997678542652068  0.4453464759485186  0.4386999306933603
  0.5809744755218702  0.4613808788812150  0.5642086988715462
  0.5981044666437896  0.4222006745900515  0.4726355418653583
  0.3563189423894713  0.5739093299922828  0.4816084619257737
  0.3689031983467359  0.5459533575791298  0.5807523816011582
  0.6415686790313231  0.5698401523193013  0.5489844800521269
  0.6504936585147476  0.5373028944147649  0.4438949234369005
  0.3055977864486223  0.4450427236500971  0.4641980386813955
  0.2815501204882196  0.4942458877848708  0.5461978680804407
  0.3223143034064933  0.4162901607299290  0.5650204845540969
  0.7189265730613741  0.5015328721991139  0.5391325782661482
  0.6922440800370069  0.4213469817460478  0.4947321991529208
 
  0.00000000E+00  0.00000000E+00  0.00000000E+00
  0.00000000E+00  0.00000000E+00  0.00000000E+00
  0.00000000E+00  0.00000000E+00  0.00000000E+00
  0.00000000E+00  0.00000000E+00  0.00000000E+00
  0.00000000E+00  0.00000000E+00  0.00000000E+00
  0.00000000E+00  0.00000000E+00  0.00000000E+00
  0.00000000E+00  0.00000000E+00  0.00000000E+00
  0.00000000E+00  0.00000000E+00  0.00000000E+00
  0.00000000E+00  0.00000000E+00  0.00000000E+00
  0.00000000E+00  0.00000000E+00  0.00000000E+00
  0.00000000E+00  0.00000000E+00  0.00000000E+00
  0.00000000E+00  0.00000000E+00  0.00000000E+00
  0.00000000E+00  0.00000000E+00  0.00000000E+00
  0.00000000E+00  0.00000000E+00  0.00000000E+00
  0.00000000E+00  0.00000000E+00  0.00000000E+00
  0.00000000E+00  0.00000000E+00  0.00000000E+00
  0.00000000E+00  0.00000000E+00  0.00000000E+00
  0.00000000E+00  0.00000000E+00  0.00000000E+00
  0.00000000E+00  0.00000000E+00  0.00000000E+00
  0.00000000E+00  0.00000000E+00  0.00000000E+00
  0.00000000E+00  0.00000000E+00  0.00000000E+00
  0.00000000E+00  0.00000000E+00  0.00000000E+00
  0.00000000E+00  0.00000000E+00  0.00000000E+00
  0.00000000E+00  0.00000000E+00  0.00000000E+00
  0.00000000E+00  0.00000000E+00  0.00000000E+00
  0.00000000E+00  0.00000000E+00  0.00000000E+00
  0.00000000E+00  0.00000000E+00  0.00000000E+00
  0.00000000E+00  0.00000000E+00  0.00000000E+00
