 N  C  H 
 1.0000000000000000
    19.6557999999999993    0.0000000000000000    0.0000000000000000
     0.0000000000000000   17.3297999999999988    0.0000000000000000
     0.0000000000000000    0.0000000000000000   16.7888999999999982
 N   C   H  
   1   3   9
Cartesian
 12.0806000000000004  8.5146999999999977  8.3914999999999988
  9.6580000000000013  8.1503999999999976  8.4021999999999988
 10.7839000000000009  9.1813999999999982  8.4021999999999988
  8.2931000000000008  8.8210999999999977  8.3916999999999984
  9.7410000000000014  7.4999999999999982  7.5228999999999990
  9.7339000000000002  7.5082999999999984  9.2880999999999982
 10.7166000000000015  9.8207999999999984  9.2888999999999982
 10.7086000000000006  9.8297999999999988  7.5227999999999984
  8.1605000000000008  9.4542999999999981  9.2747999999999990
  8.1688000000000009  9.4437999999999978  7.4999999999999982
  7.5000000000000009  8.0667999999999989  8.3923999999999985
 12.1480000000000015  7.9098999999999986  7.5735999999999990
 12.1558000000000010  7.8992999999999984  9.2007999999999992
