 C  H  N 
 1.0000000000000000
    15.0000000000000000    0.0000000000000000    0.0000000000000000
     0.0000000000000000   15.0000000000000000    0.0000000000000000
     0.0000000000000000    0.0000000000000000   15.0000000000000000
 C   H   N  
   8   8   2
Cartesian
  5.6341975847561665  8.1574440087220257  8.6971768579661912
  5.6008741329624510  6.8199956194129134  8.5903510820345996
  6.8238784964145642  6.0092446619896442  8.3328352191988753
  6.9246538834191407  8.8950193828553452  8.7887103466294949
  8.0179674374175622  8.1641409825721887  8.0027436788631920
  8.1220744026370966  6.7615858853910167  8.6350789116344124
  9.2250178995409922  8.9760396533719913  8.0578980459034977
  9.2138954396474730  5.9279145376264681  8.1514369407848282
  4.6496612424943775  6.2855557519245542  8.5993166331737747
  6.7992203936549576  5.0660918442156131  8.8819864512953544
  6.8774527464703912  5.7185377428991133  7.2791884120598533
  4.7086894058191957  8.7276291332526945  8.7896404919899389
  7.2917343802004631  8.9491117397604345  9.8219221814218631
  6.8131352881930081  9.9315385735132953  8.4732788601307121
  7.7713488589524520  8.0588365638552961  6.9442021752827801
  8.2835026341439999  6.8761708474436780  9.7075886075100541
 10.0451405617939535  9.7962783424224362  8.1638493891117356
  9.9262399163130315  5.1040722635790674  7.7390978880862091
