 C  H  N                                
   1.00000000000000     
    15.0000000000000000    0.0000000000000000    0.0000000000000000
     0.0000000000000000   15.0000000000000000    0.0000000000000000
     0.0000000000000000    0.0000000000000000   15.0000000000000000
   C    H    N 
     8     8     2
Direct
  0.3738595844492929  0.5301865560344630  0.5927774328781049
  0.3815959128901945  0.4417672571232777  0.6027204477240208
  0.4740058780648473  0.4033231675080185  0.6034913752369996
  0.4580071912986411  0.5836726690844934  0.5841142380873292
  0.5187643814612745  0.5421376408328020  0.5104692568622212
  0.5273104472449488  0.4376213833593812  0.5210537493374707
  0.6062970010154105  0.5846535918028429  0.5103179353242920
  0.4952474975138433  0.3926703365734083  0.4407600769758352
  0.3237238471777876  0.3979275701884118  0.6069990199903669
  0.5106353141511486  0.4255593552972655  0.6634092986542646
  0.4741866294727918  0.3301577040927745  0.6042066206757236
  0.3091692402609990  0.5632185686358806  0.5886605348695839
  0.4955642178718365  0.5827214263658097  0.6474862418192753
  0.4453077640002841  0.6539785127642758  0.5682884131366275
  0.4874931894438997  0.5563006868499957  0.4455542937065533
  0.5980808839138091  0.4198618802995066  0.5295173640689905
  0.6759402905402259  0.6193702993160716  0.5123919507917649
  0.4672889984779150  0.3560817094402496  0.3780138846012336
 
  0.00000000E+00  0.00000000E+00  0.00000000E+00
  0.00000000E+00  0.00000000E+00  0.00000000E+00
  0.00000000E+00  0.00000000E+00  0.00000000E+00
  0.00000000E+00  0.00000000E+00  0.00000000E+00
  0.00000000E+00  0.00000000E+00  0.00000000E+00
  0.00000000E+00  0.00000000E+00  0.00000000E+00
  0.00000000E+00  0.00000000E+00  0.00000000E+00
  0.00000000E+00  0.00000000E+00  0.00000000E+00
  0.00000000E+00  0.00000000E+00  0.00000000E+00
  0.00000000E+00  0.00000000E+00  0.00000000E+00
  0.00000000E+00  0.00000000E+00  0.00000000E+00
  0.00000000E+00  0.00000000E+00  0.00000000E+00
  0.00000000E+00  0.00000000E+00  0.00000000E+00
  0.00000000E+00  0.00000000E+00  0.00000000E+00
  0.00000000E+00  0.00000000E+00  0.00000000E+00
  0.00000000E+00  0.00000000E+00  0.00000000E+00
  0.00000000E+00  0.00000000E+00  0.00000000E+00
  0.00000000E+00  0.00000000E+00  0.00000000E+00
