 C  H  N 
 1.0000000000000000
    15.0000000000000000    0.0000000000000000    0.0000000000000000
     0.0000000000000000   15.0000000000000000    0.0000000000000000
     0.0000000000000000    0.0000000000000000   15.0000000000000000
 C   H   N  
   8   8   2
Cartesian
  5.6226504266476169  7.9682674417724577  8.8371884648040329
  5.7060377505741853  6.6290876537821051  8.8733887899617230
  7.0758404243608677  6.0901276856182687  9.0450908271523645
  6.9208728808189210  8.7096117628431031  8.9037250641687340
  7.7841030674283722  8.1462526815302425  7.7214117816368431
  7.9393516342178092  6.6078893171994757  7.8567945592271498
  9.0598684660274564  8.8194015828660213  7.5861625597491997
  7.4713446911248367  5.8451667647441647  6.7154100749326489
  4.8955456576527467  5.9382253773330413  8.6426809764232875
  7.5331518030105995  6.4745833223628377  9.9562102046244547
  7.1305033552116690  5.0072007947941097  9.1088106821091621
  4.7236310386797546  8.5264774029354022  8.5789727202282045
  7.4855552847922810  8.5037869831620707  9.8212333295987353
  6.8272184905391864  9.7895087516432557  8.8298841559792365
  7.2511686417746937  8.3824852219432415  6.7925477050912697
  8.9937212101422617  6.3921785165524456  8.0723936857635152
 10.0529733516389346  9.4021331945887958  7.4134423763695256
  6.9391750685389519  5.1282461140390936  5.9650159539082441
