 C  H  N 
 1.0000000000000000
    15.0000000000000000    0.0000000000000000    0.0000000000000000
     0.0000000000000000   15.0000000000000000    0.0000000000000000
     0.0000000000000000    0.0000000000000000   15.0000000000000000
 C   H   N  
   8   8   2
Cartesian
  5.7631543298749035  7.9990871045749481  9.0214706914985037
  5.9705640346673219  6.5856215946240537  9.1420890202266119
  7.1757254664281547  6.0080730738683910  9.3444892401074622
  6.7018122640721014  8.9240289094098983  9.3080636758158821
  7.9297333713894274  7.8858563321032298  6.7964116389940479
  7.8483969372249378  6.5264643388865462  6.8820125743483942
  8.8998678024281368  8.6162048706820720  7.5063829089508802
  6.7126944555562105  5.7797989932338636  6.4842454194355028
  5.1356264709242430  5.9767432117394783  8.8220971076347414
  8.0688182965308393  6.6095906575544809  9.4505699827746614
  7.3166208668897532  4.9280889126959506  9.3608332926714564
  4.8267009548247266  8.3167934160555781  8.5622578063604458
  7.6956313090593538  8.6149594956182547  9.6596550107352996
  6.5220956591188024  9.9945643551373031  9.2215101270050681
  7.2396970070716629  8.4491151793579213  6.1807279369083377
  8.7085142320468520  5.9814591320751918  7.2619174185579229
  9.6396054541191578  9.2535483849294771  8.1538214220073844
  5.7935068814080992  5.0874522136930773  6.2656396629514921
