 N  C  H 
 1.0000000000000000
    22.9192999999999998    0.0000000000000000    0.0000000000000000
     0.0000000000000000   17.4129000000000005    0.0000000000000000
     0.0000000000000000    0.0000000000000000   16.8328999999999986
 N   C   H  
   1   5  13
Cartesian
 14.3272750890145417  8.4842309809048082  7.7835234348225271
 10.9152263433070793  9.0344414190566464  8.5537311242881344
 12.2498418288923343  8.4739600073296195  9.0770232263913435
  9.6698920888201556  8.1588192365273073  8.4567507153577282
 13.4922719593499725  9.2706227719549705  8.7690110424194483
  8.4294163606258614  8.8991557107653865  7.9823863306422691
 10.8215801269780734  9.9977085166502278  9.0044759785151651
 11.1282974659227456  9.2136623011463001  7.4624672929475082
 12.2876363243145050  7.4773528291915383  8.6313473020537810
 12.2753299127202880  8.3425826373959424 10.1453526579522677
 10.0155316136921808  7.3547361316300979  7.8057870158958247
  9.5537944322013502  7.6931847698644553  9.4175862720500856
 13.9434717316223757  9.4834241455928829  9.7336848207424005
 13.2348264443687071 10.2474780269389854  8.2016424753493542
  8.6793436022783208  9.6433386074507830  7.1380526707603895
  7.6267111766157898  8.3019916859107585  7.5177140001615745
  7.8506005985967100  9.4192987082924162  8.7892840331730611
 14.3476856350975517  7.5206244801666058  8.1157802028679491
 15.3338085930920869  8.7423762351622081  7.8364954681182244
