 N  C  H 
 1.0000000000000000
    22.9192999999999998    0.0000000000000000    0.0000000000000000
     0.0000000000000000   17.4129000000000005    0.0000000000000000
     0.0000000000000000    0.0000000000000000   16.8328999999999986
 N   C   H  
   1   5  13
Cartesian
 14.6242999999999981  8.4775000000000009  8.4067999999999987
 10.8682999999999979  9.1040000000000010  8.4172999999999991
 12.1788999999999987  8.3140000000000001  8.4128999999999987
  9.6569999999999983  8.1719000000000008  8.4340999999999990
 13.3871999999999982  9.2488000000000010  8.4319999999999986
  8.3527999999999984  8.9529000000000014  8.4048999999999996
 10.8366999999999987  9.7609000000000012  9.2950999999999997
 10.8259999999999987  9.7478000000000016  7.5302999999999995
 12.2164999999999981  7.6748000000000012  7.5216999999999992
 12.2087999999999983  7.6512000000000011  9.2869999999999990
  9.6917999999999989  7.5000000000000009  7.5685999999999991
  9.6818999999999988  7.5449000000000011  9.3328999999999986
 13.3677999999999990  9.8753000000000011  9.3304999999999989
 13.3634999999999984  9.9129000000000005  7.5613999999999990
  7.4999999999999982  8.2670000000000012  8.4184999999999999
  8.2715999999999994  9.6134000000000004  9.2739999999999991
  8.2819999999999983  9.5648000000000017  7.4999999999999991
 14.6705999999999985  7.8757000000000010  9.2280999999999995
 15.4192999999999980  9.1118000000000006  8.4722999999999988
