 C  H  N                                
   1.00000000000000     
    15.4022502898999996    0.0000000000000000    0.0000000000000000
     0.0000000000000000   15.4022502898999996    0.0000000000000000
     0.0000000000000000    0.0000000000000000   15.4022502898999996
   C    H    N 
     7     9     1
Direct
  0.3418321754934515  0.4383217492032158  0.5648356633088993
  0.3391438294700594  0.5247692543597581  0.5741816563054130
  0.4161984256809364  0.5831286585695499  0.5604925988562484
  0.4231876300828643  0.3891758698392028  0.5425133867930039
  0.5048251905455036  0.4448385695148034  0.5531751849092205
  0.4897004628257840  0.5350553607369066  0.5121465314488117
  0.5690666686506497  0.5867513444178940  0.5097413479026307
  0.2824444081794014  0.4004529048513974  0.5739227435015688
  0.4282388994491030  0.3307287297789224  0.5835564103348080
  0.4186981620736689  0.3645928118087518  0.4751503825868894
  0.2780891575716629  0.5563088918488097  0.5920583596427247
  0.4407934796195708  0.6072883056638679  0.6234150105154357
  0.3970254709011534  0.6413285148359799  0.5235641891781392
  0.5615388086164057  0.4131542792948090  0.5236073620361336
  0.5194550249001033  0.4538476802958563  0.6226503454067916
  0.4690461752956680  0.5253028008279816  0.4440750135875879
  0.6326193621426168  0.6280906505832331  0.5085175474166770
 
  0.00000000E+00  0.00000000E+00  0.00000000E+00
  0.00000000E+00  0.00000000E+00  0.00000000E+00
  0.00000000E+00  0.00000000E+00  0.00000000E+00
  0.00000000E+00  0.00000000E+00  0.00000000E+00
  0.00000000E+00  0.00000000E+00  0.00000000E+00
  0.00000000E+00  0.00000000E+00  0.00000000E+00
  0.00000000E+00  0.00000000E+00  0.00000000E+00
  0.00000000E+00  0.00000000E+00  0.00000000E+00
  0.00000000E+00  0.00000000E+00  0.00000000E+00
  0.00000000E+00  0.00000000E+00  0.00000000E+00
  0.00000000E+00  0.00000000E+00  0.00000000E+00
  0.00000000E+00  0.00000000E+00  0.00000000E+00
  0.00000000E+00  0.00000000E+00  0.00000000E+00
  0.00000000E+00  0.00000000E+00  0.00000000E+00
  0.00000000E+00  0.00000000E+00  0.00000000E+00
  0.00000000E+00  0.00000000E+00  0.00000000E+00
  0.00000000E+00  0.00000000E+00  0.00000000E+00
