 C  H  N 
 1.0000000000000000
    15.4022502898999996    0.0000000000000000    0.0000000000000000
     0.0000000000000000   15.4022502898999996    0.0000000000000000
     0.0000000000000000    0.0000000000000000   15.4022502898999996
 C   H   N  
   7   9   1
Cartesian
  5.2747934672827794  6.7456265905272703  8.7417052984334038
  5.2202591533551175  8.0830187609338289  8.8038307109335427
  6.4113025544646467  8.9610424564280322  8.6282563608393197
  6.5141845118499635  6.0126648710154269  8.3586402344049322
  7.7724445253692087  6.8718768390050959  8.5579550787097975
  7.5334652107366109  8.2226049499339844  7.8894243314507726
  8.7453465972219355  9.0202319813037164  7.8368067160109174
  4.3731482083899680  6.1625617609770575  8.9175034796150250
  6.5813646492061260  5.0610686138094012  8.9002395387087958
  6.4988488580323178  5.7371177970308205  7.2955753549998477
  4.2762766635775726  8.5731837860651563  9.0368335834523670
  6.8195619888357486  9.2789352238560046  9.5952521446536689
  6.1467308316385738  9.8927324831636216  8.1147295441398875
  8.6556731787922079  6.3777584981888511  8.1406118164320365
  7.9735280664122632  7.0411072938639059  9.6159253231495576
  7.2132708230324694  8.0398647967322834  6.8590957923283797
  9.7236292543095377  9.6543145360278508  7.8219622374796529
