 N  C  H                                
   1.00000000000000     
    19.6557999999999993    0.0000000000000000    0.0000000000000000
     0.0000000000000000   17.3297999999999988    0.0000000000000000
     0.0000000000000000    0.0000000000000000   16.7888999999999982
   N    C    H 
     1     3     9
Direct
  0.6196211774641611  0.4930821348197938  0.5003387065263354
  0.4872113493218322  0.4698362358480779  0.5005078057526120
  0.5523221425736935  0.5240409098777832  0.4989264925039762
  0.4170712888816510  0.5092648282149810  0.5024706526335834
  0.4949194827989700  0.4305505914667194  0.4487018005944421
  0.4918950833850602  0.4323666297360589  0.5511577089624708
  0.5492157704087361  0.5705958516543745  0.5523564748137133
  0.5488921132693676  0.5657569452619171  0.4436173876787635
  0.4106646913379279  0.5593489168945993  0.5444096927136357
  0.4104093911211990  0.5385010565615289  0.4424398912376617
  0.3762458658513026  0.4678060318064823  0.5094660650787119
  0.6351124838470099  0.4594378221329762  0.4531428872648036
  0.6233612572370504  0.4616003035234115  0.5487988367314145
 
  0.00000000E+00  0.00000000E+00  0.00000000E+00
  0.00000000E+00  0.00000000E+00  0.00000000E+00
  0.00000000E+00  0.00000000E+00  0.00000000E+00
  0.00000000E+00  0.00000000E+00  0.00000000E+00
  0.00000000E+00  0.00000000E+00  0.00000000E+00
  0.00000000E+00  0.00000000E+00  0.00000000E+00
  0.00000000E+00  0.00000000E+00  0.00000000E+00
  0.00000000E+00  0.00000000E+00  0.00000000E+00
  0.00000000E+00  0.00000000E+00  0.00000000E+00
  0.00000000E+00  0.00000000E+00  0.00000000E+00
  0.00000000E+00  0.00000000E+00  0.00000000E+00
  0.00000000E+00  0.00000000E+00  0.00000000E+00
  0.00000000E+00  0.00000000E+00  0.00000000E+00
