 N  C  H 
 1.0000000000000000
    19.6557999999999993    0.0000000000000000    0.0000000000000000
     0.0000000000000000   17.3297999999999988    0.0000000000000000
     0.0000000000000000    0.0000000000000000   16.7888999999999982
 N   C   H  
   1   3   9
Cartesian
 12.1791499400000003  8.5450147800000007  8.4001365099999994
  9.5765288399999999  8.1421679999999999  8.4029755000000002
 10.8563335700000003  9.0815241600000007  8.3764269900000006
  8.1978698399999992  8.8254576199999999  8.4359295400000001
  9.7280383700000002  7.4613556399999998  7.5332096599999998
  9.6685913800000005  7.4928272199999997  9.2533316600000006
 10.7952753399999999  9.8883119900000001  9.2734576200000003
 10.7889136000000008  9.8044547099999999  7.4478479599999998
  8.0719430400000007  9.6934048599999993  9.1400398900000006
  8.0669249099999991  9.3321156100000007  7.4280790899999998
  7.3954134900000001  8.1069849699999992  8.5533748200000002
 12.4836439600000002  7.9619655700000003  7.6077706200000002
 12.2526641999999999  7.9994409400000004  9.2137287899999993
