 N  C  H 
 1.0000000000000000
    19.6557999999999993    0.0000000000000000    0.0000000000000000
     0.0000000000000000   17.3297999999999988    0.0000000000000000
     0.0000000000000000    0.0000000000000000   16.7888999999999982
 N   C   H  
   1   3   9
Cartesian
 12.1356372150911938  8.5290585610514373  8.4687451603734001
  9.6346462784968985  8.1335179717558663  8.3477699022338587
 10.7848387451572041  9.1285393828496932  8.3287825794106922
  8.2724528487908842  8.8431338227622316  8.4599943297732061
  9.6943157524149974  7.4078527021140683  7.4800091108430875
  9.7164172748710680  7.4763013261308231  9.3203331744537596
 10.6830756579719619  9.9188647322557379  9.0577411906439771
 10.6678404617734977  9.6014818995890465  7.2688874804573018
  8.2755891430547859  9.4549959792561644  9.3985629832516260
  8.0953012517918630  9.4250469625495157  7.5156520852854012
  7.4352976065459000  8.1593796089048194  8.5182887104324454
 12.3555397068535253  8.0072781180054768  7.6250091999023013
 12.2033706244521074  7.8436140873913063  9.2517607818691729
