 N  C  H 
 1.0000000000000000
    22.9192999999999998    0.0000000000000000    0.0000000000000000
     0.0000000000000000   17.4129000000000005    0.0000000000000000
     0.0000000000000000    0.0000000000000000   16.8328999999999986
 N   C   H  
   1   5  13
Cartesian
 14.4351058600000002  8.4010151400000002  7.9331530900000002
 10.8870986900000002  9.1186816999999998  8.4692422799999996
 12.2104839399999996  8.4500261900000009  8.9843662200000001
  9.7090621299999995  8.1839649100000003  8.4057144699999995
 13.4801447700000008  9.2186932400000003  8.6883021599999992
  8.3656751000000007  8.8895096299999992  8.0820357299999994
 10.5399888500000003  9.9959040300000002  9.1710574200000003
 11.0767693699999992  9.5304948599999992  7.4690514800000001
 12.3286552999999994  7.4029962400000002  8.6645507100000003
 12.1163909200000006  8.3943412300000002 10.1245342199999993
  9.8257405500000008  7.5018043299999997  7.5427988900000003
  9.4517599699999995  7.5795886399999999  9.3381744399999995
 14.0343770299999999  9.5791345299999993  9.6138477899999994
 13.2826930999999995 10.1255230199999993  8.1276101500000006
  8.4799083700000004  9.7196755800000005  7.4028631499999999
  7.6208274500000002  8.1443255099999998  7.6925272299999996
  7.9589540799999998  9.2237581300000002  9.0471604899999996
 15.1287574700000000  7.9710824699999998  8.5403971700000003
 14.9968189800000005  9.1409790199999996  7.4791229399999999
