 C  H  N 
 1.0000000000000000
    15.0000000000000000    0.0000000000000000    0.0000000000000000
     0.0000000000000000   15.0000000000000000    0.0000000000000000
     0.0000000000000000    0.0000000000000000   15.0000000000000000
 C   H   N  
   8   8   2
Cartesian
  5.7027093503964448  7.9152568538449106  8.8336348613675550
  5.8746326834094189  6.5868586789219874  9.0586705566941514
  7.2347658885356347  6.0808478534494332  9.1339023880748780
  6.8335501190890247  8.7903779480347559  8.9298721391414482
  7.7902713545362801  8.0992465625785748  7.5017416194004012
  7.8390679707997419  6.5740618960054329  7.5357234947791225
  9.0712150798112070  8.7378751655195153  7.6964484276538050
  6.9614036526017289  5.8555107845012291  6.6354168180424251
  5.1270941284266653  5.8825494571949442  8.7296299419693408
  7.9344117910261609  6.5947220563133957  9.7744496773496952
  7.3053026194955653  5.0022758722383092  9.3262126906332163
  4.8666042917104546  8.2884936484660692  8.2485512472508820
  7.5769624607031165  8.6150743797792355  9.7109465231088290
  6.6000634938680873  9.8730777792457385  8.9208850885167443
  7.2659664208783239  8.5109939185559771  6.6310267745210325
  8.8599540038544937  6.1774712615266179  7.5638440605929969
  9.9819151710828038  9.3953360501196617  8.0162980021732260
  6.1829553189574966  5.1535049830400803  6.1155281510818646
