INCAR created by Atomic Simulation Environment
 ENCUT = 600.000000
 SIGMA = 0.050000
 ALGO = Fast
 GGA = PE
 ISMEAR = 0
 ISPIN = 1
 NPAR = 4
 IVDW = 11
 LCHARG = .FALSE.
 LWAVE = .FALSE.
