 C  H  N 
 1.0000000000000000
    15.4022502898999996    0.0000000000000000    0.0000000000000000
     0.0000000000000000   15.4022502898999996    0.0000000000000000
     0.0000000000000000    0.0000000000000000   15.4022502898999996
 C   H   N  
   7   9   1
Cartesian
  5.2579263906218783  6.7461220739213381  8.8408807063226629
  5.1668353455110001  8.1571381931485316  8.8411002781497690
  6.2531621161265454  8.9742170439355693  8.6956136965181514
  6.4462250114170496  6.0923913064216997  8.6325410662183550
  6.9567040277857650  6.7988998190782892  6.5665236050268243
  6.9728414597993131  8.1777822412946524  6.5176904060645526
  8.1880324339451764  8.9027451376820999  6.5275117216695300
  4.3237340128445316  6.1867821201291218  8.8073235533080130
  7.3835476481641047  6.5786078229397233  8.8717371033201857
  6.4902002367028562  5.0188878272714863  8.4734012106933765
  4.1783834022281141  8.6038945668388749  8.7759530641183332
  7.2626719287614394  8.6281456148918512  8.8937027509184166
  6.1408081172507503 10.0492607929402826  8.5787773287398146
  6.0729122301793490  6.2491781249804736  6.2726265897596791
  7.9037433001786219  6.2696148086277690  6.5492625968111744
  6.0770949033441513  8.7249219996226941  6.2527904117175419
  9.1932453468737716  9.5028845514271119  6.5530987334422566
