 C  H  N                                
   1.00000000000000     
    15.0000000000000000    0.0000000000000000    0.0000000000000000
     0.0000000000000000   15.0000000000000000    0.0000000000000000
     0.0000000000000000    0.0000000000000000   15.0000000000000000
   C    H    N 
     8     8     2
Direct
  0.3715565874410893  0.5399637478597124  0.5839746209238372
  0.3708263453777109  0.4507294022558717  0.5827300693982549
  0.4562224325828537  0.3998302279345989  0.5947681319941734
  0.4594217268077872  0.5876617171201013  0.5899582704623069
  0.5242796682002665  0.5431922205489894  0.5228221045800343
  0.5385356974905091  0.4423974783403190  0.5460622136035951
  0.6093052047468175  0.5902334817477745  0.5176697257424295
  0.5607505554177291  0.3922701878306425  0.4655720657797455
  0.3087411843544368  0.4134247414603218  0.5755292339322855
  0.4724288612625071  0.3980443185084573  0.6665459906271828
  0.4491162631724888  0.3300713422441163  0.5738325184121886
  0.3102698434668221  0.5786609782217960  0.5773726799931803
  0.4882296080171861  0.5829130338137154  0.6576294747039046
  0.4533062911086172  0.6589652764079847  0.5746190107217131
  0.4927918809134584  0.5472794648295832  0.4565266518897405
  0.5965297895630999  0.4375586458045984  0.5909229816275258
  0.6767284188536569  0.6290100083942665  0.5149539927271553
  0.5766439892691843  0.3514139949678767  0.4012664169308091
 
  0.00000000E+00  0.00000000E+00  0.00000000E+00
  0.00000000E+00  0.00000000E+00  0.00000000E+00
  0.00000000E+00  0.00000000E+00  0.00000000E+00
  0.00000000E+00  0.00000000E+00  0.00000000E+00
  0.00000000E+00  0.00000000E+00  0.00000000E+00
  0.00000000E+00  0.00000000E+00  0.00000000E+00
  0.00000000E+00  0.00000000E+00  0.00000000E+00
  0.00000000E+00  0.00000000E+00  0.00000000E+00
  0.00000000E+00  0.00000000E+00  0.00000000E+00
  0.00000000E+00  0.00000000E+00  0.00000000E+00
  0.00000000E+00  0.00000000E+00  0.00000000E+00
  0.00000000E+00  0.00000000E+00  0.00000000E+00
  0.00000000E+00  0.00000000E+00  0.00000000E+00
  0.00000000E+00  0.00000000E+00  0.00000000E+00
  0.00000000E+00  0.00000000E+00  0.00000000E+00
  0.00000000E+00  0.00000000E+00  0.00000000E+00
  0.00000000E+00  0.00000000E+00  0.00000000E+00
  0.00000000E+00  0.00000000E+00  0.00000000E+00
