 N  C  H                                
   1.00000000000000     
    21.6910999999999987    0.0000000000000000    0.0000000000000000
     0.0000000000000000   17.1871000000000009    0.0000000000000000
     0.0000000000000000    0.0000000000000000   16.8088000000000015
   N    C    H 
     1     4    11
Direct
  0.3777200944166026  0.4835273292178428  0.5120552734282029
  0.4972952644172040  0.4727950305752557  0.4920838572652428
  0.5566731249222059  0.5232402423910969  0.5065648844652770
  0.4377289436681409  0.5230536309208631  0.4890082189091416
  0.6158436464725128  0.4761485352386359  0.4986087002046560
  0.5028742945263289  0.4337890848368815  0.4419946992051749
  0.4907443845632571  0.4355278871944677  0.5473412884917437
  0.5540887682044726  0.5394138167579143  0.5706977993669966
  0.5603322298085374  0.5806436053784552  0.4721052930607783
  0.4429825458367702  0.5699521862326975  0.5305426895435730
  0.4319490159558512  0.5518375752744760  0.4301279252534371
  0.6556554798972840  0.5096843498903212  0.5191085943077454
  0.6123278598134689  0.4220277108994566  0.5297514528104301
  0.6261942418780038  0.4625863124087246  0.4360399427680761
  0.3769951251895947  0.4763012689749857  0.5735904996192502
  0.3858306369893612  0.4271623170866548  0.4964476506353819
 
  0.00000000E+00  0.00000000E+00  0.00000000E+00
  0.00000000E+00  0.00000000E+00  0.00000000E+00
  0.00000000E+00  0.00000000E+00  0.00000000E+00
  0.00000000E+00  0.00000000E+00  0.00000000E+00
  0.00000000E+00  0.00000000E+00  0.00000000E+00
  0.00000000E+00  0.00000000E+00  0.00000000E+00
  0.00000000E+00  0.00000000E+00  0.00000000E+00
  0.00000000E+00  0.00000000E+00  0.00000000E+00
  0.00000000E+00  0.00000000E+00  0.00000000E+00
  0.00000000E+00  0.00000000E+00  0.00000000E+00
  0.00000000E+00  0.00000000E+00  0.00000000E+00
  0.00000000E+00  0.00000000E+00  0.00000000E+00
  0.00000000E+00  0.00000000E+00  0.00000000E+00
  0.00000000E+00  0.00000000E+00  0.00000000E+00
  0.00000000E+00  0.00000000E+00  0.00000000E+00
  0.00000000E+00  0.00000000E+00  0.00000000E+00
