 C  H  N                                
   1.00000000000000     
    15.4022502898999996    0.0000000000000000    0.0000000000000000
     0.0000000000000000   15.4022502898999996    0.0000000000000000
     0.0000000000000000    0.0000000000000000   15.4022502898999996
   C    H    N 
     7     9     1
Direct
  0.3361781079393968  0.4414512768072602  0.5663803114596346
  0.3365371599435694  0.5279225992046954  0.5751563015453567
  0.4155511818003139  0.5815266337449079  0.5550157721501722
  0.4138434965204665  0.3892663431253552  0.5390628893032597
  0.4926263740369731  0.4430975730757564  0.5079778563908484
  0.4684183302892301  0.5370134515623557  0.4822967617831448
  0.5463678256305118  0.5867010116912058  0.4612586619527611
  0.2767493407394153  0.4049995716785798  0.5799848413364931
  0.4344332530620493  0.3488515258828636  0.5946383763428347
  0.3939307902448815  0.3422616856051394  0.4888469278411666
  0.2777426181889144  0.5617983852312171  0.5959266280736620
  0.4571329468194269  0.5886372301757767  0.6130572853839710
  0.3974434142099096  0.6477196614514835  0.5352684223610206
  0.5236665017397109  0.4110066056148165  0.4522606766131442
  0.5421491403118694  0.4466591929817668  0.5593308054886685
  0.4273248932297014  0.5356071912041345  0.4235193251129620
  0.6092493152930862  0.6264085292587658  0.4464148517091322
 
  0.00000000E+00  0.00000000E+00  0.00000000E+00
  0.00000000E+00  0.00000000E+00  0.00000000E+00
  0.00000000E+00  0.00000000E+00  0.00000000E+00
  0.00000000E+00  0.00000000E+00  0.00000000E+00
  0.00000000E+00  0.00000000E+00  0.00000000E+00
  0.00000000E+00  0.00000000E+00  0.00000000E+00
  0.00000000E+00  0.00000000E+00  0.00000000E+00
  0.00000000E+00  0.00000000E+00  0.00000000E+00
  0.00000000E+00  0.00000000E+00  0.00000000E+00
  0.00000000E+00  0.00000000E+00  0.00000000E+00
  0.00000000E+00  0.00000000E+00  0.00000000E+00
  0.00000000E+00  0.00000000E+00  0.00000000E+00
  0.00000000E+00  0.00000000E+00  0.00000000E+00
  0.00000000E+00  0.00000000E+00  0.00000000E+00
  0.00000000E+00  0.00000000E+00  0.00000000E+00
  0.00000000E+00  0.00000000E+00  0.00000000E+00
  0.00000000E+00  0.00000000E+00  0.00000000E+00
