 C  H  N 
 1.0000000000000000
    15.4022502898999996    0.0000000000000000    0.0000000000000000
     0.0000000000000000   15.4022502898999996    0.0000000000000000
     0.0000000000000000    0.0000000000000000   15.4022502898999996
 C   H   N  
   7   9   1
Cartesian
  5.1813972987960231  6.8021926720650070  8.7262344951104875
  5.1738044900212667  8.1373599814323523  8.8252216729083468
  6.4007773623072817  8.9392581937093265  8.5634165764344967
  6.3788564046639937  6.0152028238060131  8.3186565224270996
  7.5982803798555665  6.8481477255942664  7.8812066780854604
  7.2313941672112847  8.2654772558049316  7.4556447046776562
  8.4246307092817503  9.0352079769097013  7.1528159302315757
  4.2854294646775672  6.2218636740632824  8.9410758930864507
  6.7040465450706295  5.3578419810336033  9.1365006265902373
  6.0962750643440842  5.3252406877986855  7.5168572563694536
  4.2581196432292057  8.6560759311408937  9.1022960905248844
  7.0565945413812008  8.9979731012069291  9.4395160395909432
  6.1533396758117478  9.9726666326171198  8.3009508973314841
  8.1382960958896753  6.3390138347726319  7.0752231008994704
  8.2992674791706325  6.9325682850678714  8.7124652359684678
  6.6184926837599818  8.2186984504260163  6.5496142096968475
  9.4010326920274245  9.6392239170144496  6.9487681174661429
