 C  H  N                                
   1.00000000000000     
    15.0000000000000000    0.0000000000000000    0.0000000000000000
     0.0000000000000000   15.0000000000000000    0.0000000000000000
     0.0000000000000000    0.0000000000000000   15.0000000000000000
   C    H    N 
     8     8     2
Direct
  0.3818417549481410  0.5298876164123314  0.6228220815899164
  0.3942376774541216  0.4331482010530365  0.6226430136408823
  0.4691459711007440  0.3886746803964840  0.6441182015679843
  0.4464115676696281  0.5920793560582354  0.6266704458828727
  0.5191424212956832  0.5252508254558776  0.4270350421607318
  0.5138073154820191  0.4352077685798434  0.4306619835208139
  0.5972238854903296  0.5719592232362132  0.4526597748087440
  0.4360297962286879  0.3881790046844884  0.4046743742829193
  0.3359266698113785  0.3942120509306477  0.6025843443930299
  0.5293282745674759  0.4226691146397883  0.6669351099518721
  0.4716382573764761  0.3161309081121786  0.6408981629916184
  0.3127082874269433  0.5524888480892614  0.6174352138585490
  0.5169948295100824  0.5749133904586259  0.6307218178687037
  0.4303086060497705  0.6629137289477143  0.6265700650550485
  0.4627038964276124  0.5652872455530229  0.4046016632198572
  0.5700167589711640  0.3953106197782432  0.4539275560653309
  0.6609352016334427  0.6116270516646694  0.4737845348776517
  0.3727372912229612  0.3480569310826880  0.3832238729301523
 
  0.00000000E+00  0.00000000E+00  0.00000000E+00
  0.00000000E+00  0.00000000E+00  0.00000000E+00
  0.00000000E+00  0.00000000E+00  0.00000000E+00
  0.00000000E+00  0.00000000E+00  0.00000000E+00
  0.00000000E+00  0.00000000E+00  0.00000000E+00
  0.00000000E+00  0.00000000E+00  0.00000000E+00
  0.00000000E+00  0.00000000E+00  0.00000000E+00
  0.00000000E+00  0.00000000E+00  0.00000000E+00
  0.00000000E+00  0.00000000E+00  0.00000000E+00
  0.00000000E+00  0.00000000E+00  0.00000000E+00
  0.00000000E+00  0.00000000E+00  0.00000000E+00
  0.00000000E+00  0.00000000E+00  0.00000000E+00
  0.00000000E+00  0.00000000E+00  0.00000000E+00
  0.00000000E+00  0.00000000E+00  0.00000000E+00
  0.00000000E+00  0.00000000E+00  0.00000000E+00
  0.00000000E+00  0.00000000E+00  0.00000000E+00
  0.00000000E+00  0.00000000E+00  0.00000000E+00
  0.00000000E+00  0.00000000E+00  0.00000000E+00
