 C  H  N 
 1.0000000000000000
    15.0000000000000000    0.0000000000000000    0.0000000000000000
     0.0000000000000000   15.0000000000000000    0.0000000000000000
     0.0000000000000000    0.0000000000000000   15.0000000000000000
 C   H   N  
   8   8   2
Cartesian
  5.7276263242221628  7.9483142461849523  9.3423312238486957
  5.9135651618117837  6.4972230157955622  9.3396452046132090
  7.0371895665111781  5.8301202059472148  9.6617730235197410
  6.6961735150443813  8.8811903408734842  9.4000566882430441
  7.7871363194352821  7.8787623818381549  6.4055256324110248
  7.7071097322303244  6.5281165286976828  6.4599297528121573
  8.9583582823549435  8.5793883485431799  6.7898966221311348
  6.5404469434302719  5.8226850702672976  6.0701156142437744
  5.0389000471706398  5.9131807639597529  9.0387651658954731
  7.9399241185121232  6.3400367195968599 10.0040266492781065
  7.0745738606471109  4.7419636216826504  9.6134724448742599
  4.6906243114041040  8.2873327213389434  9.2615282078782215
  7.7549224426512673  8.6237008568793563  9.4608272680305578
  6.4546290907465371  9.9437059342156928  9.3985509758257049
  6.9405584464141770  8.4793086832953630  6.0690249482978142
  8.5502513845674368  5.9296592966736164  6.8089133409799736
  9.9140280245016523  9.1744057749700278  7.1067680231647978
  5.5910593683444390  5.2208539662403135  5.7483580939522847
