 C  H  N 
 1.0000000000000000
    15.4022502898999996    0.0000000000000000    0.0000000000000000
     0.0000000000000000   15.4022502898999996    0.0000000000000000
     0.0000000000000000    0.0000000000000000   15.4022502898999996
 C   H   N  
   7   9   1
Cartesian
  5.1528152387107733  6.7714123708852512  8.6869004710407030
  5.1154656035304686  8.1082824257766575  8.7456326425712874
  6.3880019243368329  8.8624654289877292  8.5479168854209568
  6.4779371900541971  6.1241672178099904  8.4791003199865180
  7.2686526035991657  6.7798079446464614  7.3227699953873433
  7.0883728632383969  8.3157688465620119  7.2797936064818822
  8.3484370809406823  8.9813062618665853  7.0153434783950397
  4.2471221832703172  6.1708794429087712  8.7561722413945464
  7.1046304168469971  6.2802229995575098  9.3651247495639005
  6.4025761993953587  5.0431234027601040  8.3348575892972629
  4.1814157105316907  8.6521566545244220  8.8778299034347743
  7.0876706165104588  8.7046984550095576  9.3758577836141050
  6.2265875173103993  9.9409749815130066  8.4601351423381210
  6.9581743951171839  6.3654178867009703  6.3613873562160608
  8.3238080217487376  6.5289036280063231  7.4371836970842065
  6.4252165278213029  8.5545830986910065  6.4422659935544031
  9.3668321707952504  9.5030501224332085  6.7913478618913077
