 C  H  N                                
   1.00000000000000     
    15.0000000000000000    0.0000000000000000    0.0000000000000000
     0.0000000000000000   15.0000000000000000    0.0000000000000000
     0.0000000000000000    0.0000000000000000   15.0000000000000000
   C    H    N 
     8     8     2
Direct
  0.3744526899577759  0.5426008472709067  0.5857173860123931
  0.3717018526255119  0.4545481144129231  0.5716035644450906
  0.4526264879784253  0.3981517810472040  0.5548412290591428
  0.4590372717465563  0.5960847769685754  0.5835792921835209
  0.5345184694061152  0.5451346168806736  0.5356886372361723
  0.5404520053161007  0.4486400693093676  0.5737629546653871
  0.6186489516475626  0.5935033952446838  0.5430376904649943
  0.6162192004231196  0.3990614653329944  0.5380293255797883
  0.3075846127895323  0.4198973255020323  0.5718926340791947
  0.4506686016906873  0.3378778327960080  0.5968050321119998
  0.4527919167775117  0.3737079569085673  0.4853828286280107
  0.3127405953502949  0.5790543714371544  0.5988423247223393
  0.4806812199700333  0.6133284318985432  0.6518522238471266
  0.4480892525302381  0.6601736923510196  0.5495016055062197
  0.5180081017437671  0.5398930565047474  0.4641249787829067
  0.5498820004895588  0.4543195766271855  0.6465564974898131
  0.6845801864212245  0.6341949207455407  0.5501957508861623
  0.6748601292656665  0.3575927111634333  0.5080894228793713
 
  0.00000000E+00  0.00000000E+00  0.00000000E+00
  0.00000000E+00  0.00000000E+00  0.00000000E+00
  0.00000000E+00  0.00000000E+00  0.00000000E+00
  0.00000000E+00  0.00000000E+00  0.00000000E+00
  0.00000000E+00  0.00000000E+00  0.00000000E+00
  0.00000000E+00  0.00000000E+00  0.00000000E+00
  0.00000000E+00  0.00000000E+00  0.00000000E+00
  0.00000000E+00  0.00000000E+00  0.00000000E+00
  0.00000000E+00  0.00000000E+00  0.00000000E+00
  0.00000000E+00  0.00000000E+00  0.00000000E+00
  0.00000000E+00  0.00000000E+00  0.00000000E+00
  0.00000000E+00  0.00000000E+00  0.00000000E+00
  0.00000000E+00  0.00000000E+00  0.00000000E+00
  0.00000000E+00  0.00000000E+00  0.00000000E+00
  0.00000000E+00  0.00000000E+00  0.00000000E+00
  0.00000000E+00  0.00000000E+00  0.00000000E+00
  0.00000000E+00  0.00000000E+00  0.00000000E+00
  0.00000000E+00  0.00000000E+00  0.00000000E+00
