 N  C  H 
 1.0000000000000000
    21.6910999999999987    0.0000000000000000    0.0000000000000000
     0.0000000000000000   17.1871000000000009    0.0000000000000000
     0.0000000000000000    0.0000000000000000   16.8088000000000015
 N   C   H  
   1   4  11
Cartesian
  8.1781801581543689  8.3137675104159783  8.5862527378364319
 10.8102827205377192  8.1450771429249773  8.2742660820968243
 12.0443293588522131  8.9390590220478003  8.4984156792132701
  9.4949176554499282  8.9837135252526608  8.2487609334038936
 13.3706466519436518  8.2075277473519890  8.3810181169155609
 10.9272962654430881  7.4563959551138463  7.3688104888323238
 10.7902904726844895  7.4824606005493628  9.1410805522162342
 11.9602860390415877  9.3908096375484558  9.5426769358043355
 12.0813470314983995  9.8919557492811307  7.9547120559625855
  9.6109054753165939  9.7464809209187226  9.0339051624155484
  9.4463227042133617  9.5732680299405093  7.3147491074999271
 14.2402017388701054  8.8111010103059062  8.7066643294288433
 13.3399039058577547  7.3359950940660514  9.0462688523549861
 13.5532549046434134  7.7951320220714937  7.2904331868467445
  8.2634630661201296  8.2966300764459735  9.6083047242989519
  8.2691142521047016  7.3393676001092132  8.3448634003483750
