 C  H  N                                
   1.00000000000000     
    15.0000000000000000    0.0000000000000000    0.0000000000000000
     0.0000000000000000   15.0000000000000000    0.0000000000000000
     0.0000000000000000    0.0000000000000000   15.0000000000000000
   C    H    N 
     8     8     2
Direct
  0.3726292875959338  0.5363318383366636  0.5892475069996281
  0.3744986326151285  0.4471504736895839  0.5933660942218978
  0.4634266285402730  0.4018789348852707  0.6013221445527207
  0.4598826209117078  0.5854664098147637  0.5880393694593404
  0.5207600975762321  0.5420413950822734  0.5162740505706044
  0.5332619270809261  0.4392903687314092  0.5335631530663474
  0.6066751108477060  0.5872198890472172  0.5098466993915357
  0.5288281196548219  0.3903953376546717  0.4494579637565574
  0.3137110031644994  0.4072089264200061  0.5917991319588382
  0.4907230164345572  0.4139241491726994  0.6686484247398582
  0.4586031443842108  0.3293041365625338  0.5934006989673987
  0.3102515494342988  0.5734244625822741  0.5838999399370906
  0.4937234185668947  0.5811344875219294  0.6533612082178090
  0.4517610611911807  0.6566418610695497  0.5730936147510872
  0.4868120746917549  0.5503892054304114  0.4516578156839498
  0.6002869433920748  0.4281091590579195  0.5614919479430160
  0.6751018403076194  0.6241400028698334  0.5062102808946097
  0.5234928190886663  0.3507484182803668  0.3826952389083060
 
  0.00000000E+00  0.00000000E+00  0.00000000E+00
  0.00000000E+00  0.00000000E+00  0.00000000E+00
  0.00000000E+00  0.00000000E+00  0.00000000E+00
  0.00000000E+00  0.00000000E+00  0.00000000E+00
  0.00000000E+00  0.00000000E+00  0.00000000E+00
  0.00000000E+00  0.00000000E+00  0.00000000E+00
  0.00000000E+00  0.00000000E+00  0.00000000E+00
  0.00000000E+00  0.00000000E+00  0.00000000E+00
  0.00000000E+00  0.00000000E+00  0.00000000E+00
  0.00000000E+00  0.00000000E+00  0.00000000E+00
  0.00000000E+00  0.00000000E+00  0.00000000E+00
  0.00000000E+00  0.00000000E+00  0.00000000E+00
  0.00000000E+00  0.00000000E+00  0.00000000E+00
  0.00000000E+00  0.00000000E+00  0.00000000E+00
  0.00000000E+00  0.00000000E+00  0.00000000E+00
  0.00000000E+00  0.00000000E+00  0.00000000E+00
  0.00000000E+00  0.00000000E+00  0.00000000E+00
  0.00000000E+00  0.00000000E+00  0.00000000E+00
