 C  H  N 
 1.0000000000000000
    15.0000000000000000    0.0000000000000000    0.0000000000000000
     0.0000000000000000   15.0000000000000000    0.0000000000000000
     0.0000000000000000    0.0000000000000000   15.0000000000000000
 C   H   N  
   8   8   2
Cartesian
  5.5961345277290402  8.0674342609380290  8.8262516380343854
  5.5887435255773568  6.7290571353450392  8.7840912133944329
  6.9122420905728488  6.0620404108798480  8.9657900487450064
  6.9434297552125113  8.7304537540230882  8.9298720119059958
  7.7927413637243461  8.1483416652777798  7.7611107885048360
  8.0100847707544229  6.6415636966094729  8.0209153257986294
  9.0413431321346831  8.8664565296399189  7.5952717570875627
  8.0821951861623536  5.8002988047113462  6.8439184985883355
  4.7217049386675782  6.1212977026875706  8.5232042629802756
  7.2920269835017022  6.2849893177058123  9.9701299787469093
  6.8720547577467777  4.9792795294530841  8.8989097243712614
  4.7215426390357242  8.6945116270393115  8.6568125408147267
  7.4822588615609149  8.4815745549621866  9.8517248706671499
  6.8909862799731156  9.8140537915341888  8.8777126009030614
  7.2543669311595007  8.2942461600261694  6.8165188754328891
  8.9491833288176394  6.5622099876692701  8.5721891190938102
 10.0126863475520373  9.4975103007352697  7.4840993784331875
  7.9915356530957817  5.0028473762726788  5.9992880052547459
