 N  C  H 
 1.0000000000000000
    26.8076000000000008    0.0000000000000000    0.0000000000000000
     0.0000000000000000   17.2400999999999982    0.0000000000000000
     0.0000000000000000    0.0000000000000000   16.8814999999999991
 N   C   H  
   1   8  19
Cartesian
 18.4710000000000001  8.1805999999999983  8.4373999999999985
 13.4941000000000013  8.2182999999999993  8.4363999999999990
 12.2075000000000014  9.0501999999999985  8.4283999999999981
 14.7670000000000012  9.0677999999999983  8.4268999999999981
 10.9358000000000004  8.1980999999999984  8.4116999999999980
 16.0202000000000027  8.1887999999999987  8.4591999999999992
  9.6520000000000010  9.0304999999999982  8.4653999999999989
 17.2905000000000015  9.0361999999999991  8.4144999999999985
  8.3838000000000008  8.1918999999999986  8.4224999999999977
 13.4958000000000009  7.5729999999999986  9.3236999999999988
 13.4964000000000013  7.5549999999999988  7.5625999999999980
 12.2093000000000007  9.7101999999999986  7.5522999999999989
 12.1961000000000013  9.6983999999999995  9.3133999999999979
 14.7787000000000006  9.6965999999999983  7.5284999999999984
 14.7662000000000013  9.7400999999999982  9.2931999999999988
 10.9511000000000003  7.5090999999999992  9.2652999999999981
 10.9290000000000020  7.5798999999999985  7.5055999999999985
 16.0137000000000000  7.5749999999999993  9.3687999999999985
 16.0035000000000025  7.4999999999999991  7.6049999999999986
  9.6394000000000020  9.7324999999999982  7.6230999999999982
  9.6478000000000002  9.6330999999999989  9.3814999999999991
 17.3224000000000018  9.7125999999999983  9.2752999999999979
 17.3055000000000021  9.6497999999999990  7.5069999999999988
  8.3437000000000019  7.5019999999999989  9.2713999999999981
  8.3354999999999997  7.6047999999999991  7.4999999999999982
  7.5000000000000009  8.8359999999999985  8.4638999999999989
 19.3076000000000008  8.7567999999999984  8.3550999999999984
 18.4660000000000011  7.5665999999999993  7.6239999999999988
