 C  H  N                                
   1.00000000000000     
    15.4022502898999996    0.0000000000000000    0.0000000000000000
     0.0000000000000000   15.4022502898999996    0.0000000000000000
     0.0000000000000000    0.0000000000000000   15.4022502898999996
   C    H    N 
     7     9     1
Direct
  0.3383095189689201  0.4396120431950156  0.5689729390767869
  0.3338711668896398  0.5265115685103304  0.5700897523328468
  0.4114826679878754  0.5777941418146875  0.5406582466295782
  0.4206278886760281  0.3976183031177891  0.5378094593961593
  0.4523387512866442  0.4392312564397659  0.4523682693226768
  0.4465940338759233  0.5406718209330952  0.4531452068936154
  0.5301262819641249  0.5795319373046294  0.4306844260412117
  0.2836630093615338  0.3994590851554201  0.5897437969822190
  0.4716782957243815  0.4055548956096016  0.5877172872187468
  0.4126960072245497  0.3272996305656574  0.5285224678841017
  0.2755500257669480  0.5605970186264355  0.5916576370628934
  0.4637592765292425  0.5735503064145093  0.5896256699694290
  0.3965139780433427  0.6471104840090133  0.5329654047440944
  0.4120328938999752  0.4151164647137566  0.3986347013470176
  0.5193112798330872  0.4186016473266279  0.4389148675144239
  0.4004841327008360  0.5610333746649229  0.4023311020019249
  0.5976197390464130  0.6091532109388023  0.4128165086406209
 
  0.00000000E+00  0.00000000E+00  0.00000000E+00
  0.00000000E+00  0.00000000E+00  0.00000000E+00
  0.00000000E+00  0.00000000E+00  0.00000000E+00
  0.00000000E+00  0.00000000E+00  0.00000000E+00
  0.00000000E+00  0.00000000E+00  0.00000000E+00
  0.00000000E+00  0.00000000E+00  0.00000000E+00
  0.00000000E+00  0.00000000E+00  0.00000000E+00
  0.00000000E+00  0.00000000E+00  0.00000000E+00
  0.00000000E+00  0.00000000E+00  0.00000000E+00
  0.00000000E+00  0.00000000E+00  0.00000000E+00
  0.00000000E+00  0.00000000E+00  0.00000000E+00
  0.00000000E+00  0.00000000E+00  0.00000000E+00
  0.00000000E+00  0.00000000E+00  0.00000000E+00
  0.00000000E+00  0.00000000E+00  0.00000000E+00
  0.00000000E+00  0.00000000E+00  0.00000000E+00
  0.00000000E+00  0.00000000E+00  0.00000000E+00
  0.00000000E+00  0.00000000E+00  0.00000000E+00
