 C  H  N 
 1.0000000000000000
    15.4022502898999996    0.0000000000000000    0.0000000000000000
     0.0000000000000000   15.4022502898999996    0.0000000000000000
     0.0000000000000000    0.0000000000000000   15.4022502898999996
 C   H   N  
   7   9   1
Cartesian
  5.2323644773674429  6.7671669606808775  8.7709812860511729
  5.1506940131311332  8.1039261354978205  8.7558375975296432
  6.3666788763448716  8.8644832301678473  8.3648215369610135
  6.5242250315162478  6.1714887370620497  8.3408062150339166
  6.8892853267118310  6.7519473007928577  6.9191139946429843
  6.8590632089229242  8.3134477056057428  6.9565750761539205
  8.1474563279339289  8.8978758947376999  6.6270665610412722
  4.3505310988447254  6.1477675685259721  8.9188352067952437
  7.3415292359042326  6.4994097719614494  8.9880039009571373
  6.5052136071397566  5.0772928204849173  8.3468357161718512
  4.2013073690729961  8.6236792565942029  8.8870207094987617
  7.2066945646386147  8.6509653138256191  9.0310298447227098
  6.2069377125167291  9.9479955811750802  8.3596624030009483
  6.1469852114288788  6.3701916385835045  6.2115383629037870
  7.8733260062421424  6.3847759211431505  6.6057742032495419
  6.1363020926984442  8.6717636612348326  6.2230120456505942
  9.1712387701669638  9.4178638089841922  6.4235763414752434
