 C  H  N                                
   1.00000000000000     
    15.4022502898999996    0.0000000000000000    0.0000000000000000
     0.0000000000000000   15.4022502898999996    0.0000000000000000
     0.0000000000000000    0.0000000000000000   15.4022502898999996
   C    H    N 
     7     9     1
Direct
  0.3466918562880181  0.4376180809145396  0.5631972599851167
  0.3420632172858262  0.5241683082813822  0.5705450244705830
  0.4196919216747830  0.5832581323837260  0.5666691460019067
  0.4306769068853242  0.3888849932752549  0.5528378194920549
  0.5100094815649570  0.4452658684769375  0.5733580795998350
  0.5003366029009086  0.5355564639805195  0.5306925090814616
  0.5786430162722596  0.5878018503879190  0.5420091959039297
  0.2869769011729275  0.3993280569904414  0.5649749374909732
  0.4305938224734405  0.3314010168952350  0.5954439151567144
  0.4352649019773978  0.3628380440445724  0.4861143704077477
  0.2789312543250091  0.5553065511299735  0.5794912448200620
  0.4343568383796566  0.6093948686310355  0.6317878742051590
  0.4054040368525591  0.6401830019288326  0.5258290698209578
  0.5700359387830645  0.4138502223405496  0.5510079144662683
  0.5160183806936303  0.4542676104503727  0.6440341535347684
  0.4912498498491189  0.5261097942577990  0.4601774992612775
  0.6410900431956605  0.6293450159220981  0.5526152477806079
 
  0.00000000E+00  0.00000000E+00  0.00000000E+00
  0.00000000E+00  0.00000000E+00  0.00000000E+00
  0.00000000E+00  0.00000000E+00  0.00000000E+00
  0.00000000E+00  0.00000000E+00  0.00000000E+00
  0.00000000E+00  0.00000000E+00  0.00000000E+00
  0.00000000E+00  0.00000000E+00  0.00000000E+00
  0.00000000E+00  0.00000000E+00  0.00000000E+00
  0.00000000E+00  0.00000000E+00  0.00000000E+00
  0.00000000E+00  0.00000000E+00  0.00000000E+00
  0.00000000E+00  0.00000000E+00  0.00000000E+00
  0.00000000E+00  0.00000000E+00  0.00000000E+00
  0.00000000E+00  0.00000000E+00  0.00000000E+00
  0.00000000E+00  0.00000000E+00  0.00000000E+00
  0.00000000E+00  0.00000000E+00  0.00000000E+00
  0.00000000E+00  0.00000000E+00  0.00000000E+00
  0.00000000E+00  0.00000000E+00  0.00000000E+00
  0.00000000E+00  0.00000000E+00  0.00000000E+00
