 C  H  N                                
   1.00000000000000     
    15.4022502898999996    0.0000000000000000    0.0000000000000000
     0.0000000000000000   15.4022502898999996    0.0000000000000000
     0.0000000000000000    0.0000000000000000   15.4022502898999996
   C    H    N 
     7     9     1
Direct
  0.3430920100601043  0.4379326697264219  0.5783825692905680
  0.3381766174496406  0.5328373531250818  0.5802421967420415
  0.4039317551920831  0.5890951464610623  0.5683328407285373
  0.4144186099844305  0.3891711287478827  0.5654341237084139
  0.4255562792977159  0.4421002594422490  0.3570446990778962
  0.4306460786630453  0.5291101546390351  0.3592428145253876
  0.5107367638415994  0.5746410061260292  0.3668647320498621
  0.2813127279784169  0.4042666865342852  0.5882908007265542
  0.4786149531916521  0.4176457798012052  0.5559271103592636
  0.4106626920477510  0.3185098176876338  0.5651902540873195
  0.2734073776503791  0.5595034438927300  0.5921285627437243
  0.4705657597542867  0.5681366283123879  0.5564792821135214
  0.3930027200533317  0.6589592225766268  0.5707241397247742
  0.3628713131329562  0.4097882988134103  0.3522541150681846
  0.4833523395661743  0.4014014736573870  0.3601356692548308
  0.3723849893245514  0.5694171127933032  0.3566219920432516
  0.5757475084707124  0.6132393025665976  0.3739631900501195
 
  0.00000000E+00  0.00000000E+00  0.00000000E+00
  0.00000000E+00  0.00000000E+00  0.00000000E+00
  0.00000000E+00  0.00000000E+00  0.00000000E+00
  0.00000000E+00  0.00000000E+00  0.00000000E+00
  0.00000000E+00  0.00000000E+00  0.00000000E+00
  0.00000000E+00  0.00000000E+00  0.00000000E+00
  0.00000000E+00  0.00000000E+00  0.00000000E+00
  0.00000000E+00  0.00000000E+00  0.00000000E+00
  0.00000000E+00  0.00000000E+00  0.00000000E+00
  0.00000000E+00  0.00000000E+00  0.00000000E+00
  0.00000000E+00  0.00000000E+00  0.00000000E+00
  0.00000000E+00  0.00000000E+00  0.00000000E+00
  0.00000000E+00  0.00000000E+00  0.00000000E+00
  0.00000000E+00  0.00000000E+00  0.00000000E+00
  0.00000000E+00  0.00000000E+00  0.00000000E+00
  0.00000000E+00  0.00000000E+00  0.00000000E+00
  0.00000000E+00  0.00000000E+00  0.00000000E+00
