 C  H  N 
 1.0000000000000000
    15.4022502898999996    0.0000000000000000    0.0000000000000000
     0.0000000000000000   15.4022502898999996    0.0000000000000000
     0.0000000000000000    0.0000000000000000   15.4022502898999996
 C   H   N  
   7   9   1
Cartesian
  5.2843890114106422  6.7451485892504408  8.9083930955287105
  5.2086809041511177  8.2068942766403463  8.9370355429823736
  6.2214579935070748  9.0733908903585316  8.7536046608707885
  6.3829791557726008  5.9941111305778216  8.7089578958073162
  6.5545243261819994  6.8093388491592872  5.4992918198797351
  6.6329186899321950  8.1494870326781417  5.5331477441681889
  7.8664954689418511  8.8507646031930758  5.6505424255690739
  4.3328490460581595  6.2266166898695863  9.0610021560360536
  7.3717473015465860  6.4326848330186133  8.5625284966942754
  6.3251295676435548  4.9057679318154017  8.7052017548650742
  4.2110888616763225  8.6176120808968317  9.1201123271776421
  7.2477716095924789  8.7505825481273174  8.5710331842562990
  6.0531262588729362 10.1494548769631674  8.7904360465287965
  5.5890347878984219  6.3116619441964392  5.4255060459273849
  7.4447137122069416  6.1824859640057737  5.5468997161835967
  5.7355668097785122  8.7703048905946588  5.4927811803328721
  8.8678072292522270  9.4452652257344809  5.7598746523614057
