 C  H  N                                
   1.00000000000000     
    15.0000000000000000    0.0000000000000000    0.0000000000000000
     0.0000000000000000   15.0000000000000000    0.0000000000000000
     0.0000000000000000    0.0000000000000000   15.0000000000000000
   C    H    N 
     8     8     2
Direct
  0.3749303045741422  0.5295696500431117  0.5988037186370302
  0.3882417004261562  0.4373996342497096  0.6109263352330198
  0.4724230290493404  0.4012696212938505  0.6226016847164555
  0.4445789120704634  0.5897192283664348  0.6013598039087176
  0.5338238235600058  0.5355035783727883  0.4862643071076548
  0.5348135630930425  0.4417274913740955  0.4918308137642324
  0.6107949988915032  0.5850127460683550  0.5106625904655471
  0.4773519652447316  0.3919318978791119  0.4349310938809473
  0.3328199157980573  0.3925482903928776  0.5959944395359635
  0.5256459311647992  0.4394310538782344  0.6542266098595889
  0.4810929955621957  0.3290355875648044  0.6237042229268964
  0.3100611411179275  0.5516550023372971  0.5739668100877113
  0.5034682087348226  0.5771906910263093  0.6420529933354679
  0.4344507872403800  0.6592395768682101  0.5825546422305306
  0.4888460047385452  0.5676605196903832  0.4391633383018811
  0.5962654374704478  0.4084330471969399  0.5120448655979143
  0.6736957989623266  0.6262742661872917  0.5317023233155631
  0.4290495762508424  0.3519155900411765  0.3884776668539320
 
  0.00000000E+00  0.00000000E+00  0.00000000E+00
  0.00000000E+00  0.00000000E+00  0.00000000E+00
  0.00000000E+00  0.00000000E+00  0.00000000E+00
  0.00000000E+00  0.00000000E+00  0.00000000E+00
  0.00000000E+00  0.00000000E+00  0.00000000E+00
  0.00000000E+00  0.00000000E+00  0.00000000E+00
  0.00000000E+00  0.00000000E+00  0.00000000E+00
  0.00000000E+00  0.00000000E+00  0.00000000E+00
  0.00000000E+00  0.00000000E+00  0.00000000E+00
  0.00000000E+00  0.00000000E+00  0.00000000E+00
  0.00000000E+00  0.00000000E+00  0.00000000E+00
  0.00000000E+00  0.00000000E+00  0.00000000E+00
  0.00000000E+00  0.00000000E+00  0.00000000E+00
  0.00000000E+00  0.00000000E+00  0.00000000E+00
  0.00000000E+00  0.00000000E+00  0.00000000E+00
  0.00000000E+00  0.00000000E+00  0.00000000E+00
  0.00000000E+00  0.00000000E+00  0.00000000E+00
  0.00000000E+00  0.00000000E+00  0.00000000E+00
