 C  H  N                                
   1.00000000000000     
    15.4022502898999996    0.0000000000000000    0.0000000000000000
     0.0000000000000000   15.4022502898999996    0.0000000000000000
     0.0000000000000000    0.0000000000000000   15.4022502898999996
   C    H    N 
     7     9     1
Direct
  0.3424682823871603  0.4391881589863588  0.5738498373666373
  0.3345771475480560  0.5306077098634238  0.5775595263532430
  0.4041372630655898  0.5853498786101172  0.5678488391195123
  0.4207077905141376  0.3981627071891191  0.5561304343763933
  0.4499851713978448  0.4388637603780395  0.4269388778541104
  0.4531897829029792  0.5291311744456458  0.4200521471431535
  0.5323708673892769  0.5757412183880886  0.4243905527633217
  0.2826593961500443  0.4009902617274915  0.5711000529986463
  0.4817451251586602  0.4268677466798019  0.5778064914520562
  0.4220307874175833  0.3275521282099516  0.5498012228152854
  0.2691037221583927  0.5581246419337360  0.5772299346866122
  0.4704765588901281  0.5641712854601442  0.5801030819450138
  0.3953018171272544  0.6552436980418859  0.5606864240968346
  0.3947618042671716  0.4051912136161013  0.3984656427922530
  0.5110383277696299  0.4029152499636711  0.4268665458800511
  0.3973344771611769  0.5653691307481451  0.3961149971628774
  0.5976405328470792  0.6148803825586602  0.4280630735462357
 
  0.00000000E+00  0.00000000E+00  0.00000000E+00
  0.00000000E+00  0.00000000E+00  0.00000000E+00
  0.00000000E+00  0.00000000E+00  0.00000000E+00
  0.00000000E+00  0.00000000E+00  0.00000000E+00
  0.00000000E+00  0.00000000E+00  0.00000000E+00
  0.00000000E+00  0.00000000E+00  0.00000000E+00
  0.00000000E+00  0.00000000E+00  0.00000000E+00
  0.00000000E+00  0.00000000E+00  0.00000000E+00
  0.00000000E+00  0.00000000E+00  0.00000000E+00
  0.00000000E+00  0.00000000E+00  0.00000000E+00
  0.00000000E+00  0.00000000E+00  0.00000000E+00
  0.00000000E+00  0.00000000E+00  0.00000000E+00
  0.00000000E+00  0.00000000E+00  0.00000000E+00
  0.00000000E+00  0.00000000E+00  0.00000000E+00
  0.00000000E+00  0.00000000E+00  0.00000000E+00
  0.00000000E+00  0.00000000E+00  0.00000000E+00
  0.00000000E+00  0.00000000E+00  0.00000000E+00
