 N  C  H                                
   1.00000000000000     
    22.9192999999999998    0.0000000000000000    0.0000000000000000
     0.0000000000000000   17.4129000000000005    0.0000000000000000
     0.0000000000000000    0.0000000000000000   16.8328999999999986
   N    C    H 
     1     5    13
Direct
  0.6298231560300707  0.4824592767431071  0.4712885533687015
  0.4750188134018032  0.5236739256528224  0.5031362557848027
  0.5327598984262139  0.4852739170385192  0.5337384657426796
  0.4236194879424744  0.4699943668200035  0.4993622293247171
  0.5881569144781906  0.5294174571725563  0.5161500490111592
  0.3650056982543077  0.5105128743632577  0.4801332943224281
  0.4598739424851530  0.5740516530847799  0.5448293175863910
  0.4832944012251659  0.5473238151025939  0.4437174509442841
  0.5379158743940664  0.4251443607899859  0.5147390354603161
  0.5286544929382657  0.4820760028484656  0.6014729618782297
  0.4287103249226618  0.4308187797552421  0.4480985979837087
  0.4123930473443806  0.4352858306198257  0.5547573169210267
  0.6123388161942103  0.5501171275318839  0.5711343731620815
  0.5795418315568099  0.5814955016108740  0.4828407553065688
  0.3699898500390475  0.5581882156332370  0.4397853697223866
  0.3325069897422708  0.4677179280877937  0.4569935798347302
  0.3472599110793055  0.5297083271597529  0.5374689144473024
  0.6600881122023807  0.4577688076081543  0.5073633877703756
  0.6543314577670358  0.5249544314847014  0.4443157709010350
 
  0.00000000E+00  0.00000000E+00  0.00000000E+00
  0.00000000E+00  0.00000000E+00  0.00000000E+00
  0.00000000E+00  0.00000000E+00  0.00000000E+00
  0.00000000E+00  0.00000000E+00  0.00000000E+00
  0.00000000E+00  0.00000000E+00  0.00000000E+00
  0.00000000E+00  0.00000000E+00  0.00000000E+00
  0.00000000E+00  0.00000000E+00  0.00000000E+00
  0.00000000E+00  0.00000000E+00  0.00000000E+00
  0.00000000E+00  0.00000000E+00  0.00000000E+00
  0.00000000E+00  0.00000000E+00  0.00000000E+00
  0.00000000E+00  0.00000000E+00  0.00000000E+00
  0.00000000E+00  0.00000000E+00  0.00000000E+00
  0.00000000E+00  0.00000000E+00  0.00000000E+00
  0.00000000E+00  0.00000000E+00  0.00000000E+00
  0.00000000E+00  0.00000000E+00  0.00000000E+00
  0.00000000E+00  0.00000000E+00  0.00000000E+00
  0.00000000E+00  0.00000000E+00  0.00000000E+00
  0.00000000E+00  0.00000000E+00  0.00000000E+00
  0.00000000E+00  0.00000000E+00  0.00000000E+00
