 C  H  N 
 1.0000000000000000
    15.0000000000000000    0.0000000000000000    0.0000000000000000
     0.0000000000000000   15.0000000000000000    0.0000000000000000
     0.0000000000000000    0.0000000000000000   15.0000000000000000
 C   H   N  
   8   8   2
Cartesian
  5.6016969983301026  8.1578779390742415  8.7585483986390589
  5.5413189534513547  6.8225701680741837  8.6622945833434404
  6.7733070299726688  5.9795648402155495  8.6673407712088277
  6.9339209238374933  8.8236435255392767  8.8666966626213224
  7.8810811411840023  8.1610728931165148  7.8475657888257455
  8.0909571734941199  6.7186371411630441  8.3394042275146383
  9.1123671951945013  8.9264101369868243  7.7506895115329053
  8.8471148379153828  5.8683016835449351  7.4328116784461162
  4.5918298140274976  6.2924513806309230  8.5600135793889915
  6.9314700270445622  5.5064550130644800  9.6434738479557769
  6.6365549303581410  5.1440490910116186  7.9888197881233358
  4.7015853221275874  8.7735696595579888  8.7522848126953967
  7.4064531106381990  8.6756002864027497  9.8468404850104196
  6.8626732969488051  9.9004717743528463  8.7279644163739789
  7.4518931503143016  8.1509882303846872  6.8414691026500236
  8.6810438266123615  6.8014743402619899  9.2566243618321842
 10.0062013547372111  9.6726121690796365  7.7614757644453620
  9.2754683755584839  5.0612521614966539  6.7108870515220609
