 C  H  N 
 1.0000000000000000
    15.4022502898999996    0.0000000000000000    0.0000000000000000
     0.0000000000000000   15.4022502898999996    0.0000000000000000
     0.0000000000000000    0.0000000000000000   15.4022502898999996
 C   H   N  
   7   9   1
Cartesian
  5.2283149945187288  6.7711880247781693  8.7597917222622055
  5.1965148811364621  8.1084011477686371  8.8361365859418104
  6.3918090103213361  8.9576354569584051  8.5723087447648716
  6.4190124574806111  6.0105079892037399  8.2868810784179470
  7.6926906693838806  6.8635232652782561  8.2107853516735130
  7.3657150545941006  8.2349633563230906  7.6303212030611673
  8.5678639685340325  9.0206806721207631  7.4146652884949988
  4.3360884641784176  6.1919122099090602  8.9906093458282630
  6.5910872810377867  5.1353383470772664  8.9268044895368011
  6.2380595940532322  5.5934118322458684  7.2876779457062382
  4.2761750130644698  8.6087407139716561  9.1324785107596149
  6.9511406237546156  9.1710378859724901  9.4912211527917449
  6.1045414846763242  9.9369651366528515  8.1745148506788592
  8.4601686238928018  6.3578393814303551  7.6155564221235901
  8.1126702435263809  7.0139690057767767  9.2054412977675089
  6.8776219511045911  8.0969304382608840  6.6604887344425601
  9.5433359945623124  9.6439090740036182  7.2748029457161074
