 C  H  N                                
   1.00000000000000     
    15.4022502898999996    0.0000000000000000    0.0000000000000000
     0.0000000000000000   15.4022502898999996    0.0000000000000000
     0.0000000000000000    0.0000000000000000   15.4022502898999996
   C    H    N 
     7     9     1
Direct
  0.3339537518088466  0.4413583761525491  0.5632121124735032
  0.3336183697475067  0.5280065158757103  0.5704323752240756
  0.4158009231982294  0.5785573415577586  0.5559813104996687
  0.4165421633719892  0.3922175286649736  0.5463775706486876
  0.4843487229388385  0.4410716033403189  0.4898569656395323
  0.4641167228735893  0.5389657660376480  0.4770475073023608
  0.5434667828742457  0.5869199985656586  0.4572989345853858
  0.2742070267746116  0.4041933092013901  0.5724557043800176
  0.4464270175105524  0.3777257369462844  0.6100069860376065
  0.4022388835364987  0.3284811542893211  0.5175229565524018
  0.2737603597186944  0.5631807551053689  0.5849316821483377
  0.4586832270331372  0.5753310712461861  0.6134343521793070
  0.4025676845202542  0.6476903542619330  0.5443056586310488
  0.4886613736561624  0.4108562432439591  0.4253310627235679
  0.5489986311737318  0.4345642361217629  0.5193766608627334
  0.4204882197313830  0.5463486292032456  0.4206823918262947
  0.6075085749293601  0.6249986469733586  0.4431356117676767
 
  0.00000000E+00  0.00000000E+00  0.00000000E+00
  0.00000000E+00  0.00000000E+00  0.00000000E+00
  0.00000000E+00  0.00000000E+00  0.00000000E+00
  0.00000000E+00  0.00000000E+00  0.00000000E+00
  0.00000000E+00  0.00000000E+00  0.00000000E+00
  0.00000000E+00  0.00000000E+00  0.00000000E+00
  0.00000000E+00  0.00000000E+00  0.00000000E+00
  0.00000000E+00  0.00000000E+00  0.00000000E+00
  0.00000000E+00  0.00000000E+00  0.00000000E+00
  0.00000000E+00  0.00000000E+00  0.00000000E+00
  0.00000000E+00  0.00000000E+00  0.00000000E+00
  0.00000000E+00  0.00000000E+00  0.00000000E+00
  0.00000000E+00  0.00000000E+00  0.00000000E+00
  0.00000000E+00  0.00000000E+00  0.00000000E+00
  0.00000000E+00  0.00000000E+00  0.00000000E+00
  0.00000000E+00  0.00000000E+00  0.00000000E+00
  0.00000000E+00  0.00000000E+00  0.00000000E+00
