 C  H  N 
 1.0000000000000000
    15.4022502898999996    0.0000000000000000    0.0000000000000000
     0.0000000000000000   15.4022502898999996    0.0000000000000000
     0.0000000000000000    0.0000000000000000   15.4022502898999996
 C   H   N  
   7   9   1
Cartesian
  5.1445967377766415  6.8042150543818822  8.6620735665335857
  5.1410425199460423  8.1378856888619140  8.7784785648823931
  6.4034747069535261  8.9045443910881659  8.5805697353473693
  6.4052506368146069  6.0497087032168828  8.4150341822292276
  7.4939976162032158  6.8183798111882385  7.6294414941046398
  7.1720862108583239  8.2953258539410673  7.3904932832553119
  8.3793109215529267  9.0393860804318358  7.0907326280637095
  4.2358991472175562  6.2223632157290183  8.8087224000568796
  6.8671985404315032  5.7523784691386846  9.3672176310681508
  6.1709973244339222  5.1051392238929747  7.9164728108423255
  4.2187108766635468  8.6745937191759808  8.9916711109976539
  7.0760357822402975  8.8437147320755614  9.4426802481375880
  6.2064077580680399  9.9679283423737708  8.4117854294133849
  7.6846725721916478  6.3452592125567886  6.6611377387478186
  8.4338169654393020  6.7501305916950027  8.1776000074550854
  6.5131665484596573  8.3661716749465640  6.5172878685389453
  9.3668825022990294  9.6202807791242542  6.8737197113986381
