 C  H  N 
 1.0000000000000000
    15.4022502898999996    0.0000000000000000    0.0000000000000000
     0.0000000000000000   15.4022502898999996    0.0000000000000000
     0.0000000000000000    0.0000000000000000   15.4022502898999996
 C   H   N  
   7   9   1
Cartesian
  5.3398347440180958  6.7403032136314485  8.6745051608766488
  5.2685432876047438  8.0733714781833115  8.7876772685530398
  6.4642000222841141  8.9834877385937766  8.7279800182852512
  6.6333935139277189  5.9897040004115540  8.5149464655391860
  7.8552936852856066  6.8580963518314855  8.8310046477330655
  7.7063095870781009  8.2487747026017750  8.1738588518476991
  8.9124045651280195  9.0534712205410806  8.3481612947397679
  4.4200900592853261  6.1505506815462292  8.7018853947565749
  6.6321138270206985  5.1043214085477882  9.1711762148416938
  6.7040589626646705  5.5885223690722645  7.4872552025372876
  4.2961689927895419  8.5529704881250037  8.9254691935243109
  6.6900727398531128  9.3860522920359397  9.7309549686317158
  6.2441344441389584  9.8602588270474136  8.0989509430876936
  8.7798362033748738  6.3742247070199092  8.4867618103252749
  7.9478442536321952  6.9967434347514335  9.9195752279863889
  7.5663531422519226  8.1032747311264135  7.0877690214024680
  9.8742293036623661  9.6933294539332557  8.5115183603320279
