 C  H  N                                
   1.00000000000000     
    15.0000000000000000    0.0000000000000000    0.0000000000000000
     0.0000000000000000   15.0000000000000000    0.0000000000000000
     0.0000000000000000    0.0000000000000000   15.0000000000000000
   C    H    N 
     8     8     2
Direct
  0.3769313214804784  0.5316487054203409  0.6000184453365308
  0.3904350210906961  0.4363177800047634  0.6147092709164028
  0.4645798321474524  0.3969920861455838  0.6465929153403761
  0.4334328135919017  0.5978255758992880  0.6221452209546283
  0.5496200696846807  0.5323274321671826  0.4581710965892302
  0.5493795378035611  0.4420233986590576  0.4599442869472600
  0.6174123344012422  0.5834547773440555  0.4996734663144505
  0.4811173827019695  0.3912101840993464  0.4187879364677625
  0.3351115596105423  0.3933703925531474  0.5942850902720209
  0.5230929505720550  0.4351373816911461  0.6672619272033732
  0.4686511469067163  0.3247107713066813  0.6533401100670264
  0.3149549865448986  0.5494558915112937  0.5658229620800556
  0.4960578363786781  0.5856310467041385  0.6572322935446069
  0.4183474957241570  0.6672067428849006  0.6064678506413145
  0.4961778412451958  0.5692014431971664  0.4253103080436145
  0.6019244384030041  0.4050137867060801  0.4941405384943361
  0.6723765382660636  0.6269591623750111  0.5340547215885446
  0.4250894567365228  0.3483458398531324  0.3853802835831288
 
  0.00000000E+00  0.00000000E+00  0.00000000E+00
  0.00000000E+00  0.00000000E+00  0.00000000E+00
  0.00000000E+00  0.00000000E+00  0.00000000E+00
  0.00000000E+00  0.00000000E+00  0.00000000E+00
  0.00000000E+00  0.00000000E+00  0.00000000E+00
  0.00000000E+00  0.00000000E+00  0.00000000E+00
  0.00000000E+00  0.00000000E+00  0.00000000E+00
  0.00000000E+00  0.00000000E+00  0.00000000E+00
  0.00000000E+00  0.00000000E+00  0.00000000E+00
  0.00000000E+00  0.00000000E+00  0.00000000E+00
  0.00000000E+00  0.00000000E+00  0.00000000E+00
  0.00000000E+00  0.00000000E+00  0.00000000E+00
  0.00000000E+00  0.00000000E+00  0.00000000E+00
  0.00000000E+00  0.00000000E+00  0.00000000E+00
  0.00000000E+00  0.00000000E+00  0.00000000E+00
  0.00000000E+00  0.00000000E+00  0.00000000E+00
  0.00000000E+00  0.00000000E+00  0.00000000E+00
  0.00000000E+00  0.00000000E+00  0.00000000E+00
