 C  H  N 
 1.0000000000000000
    15.0000000000000000    0.0000000000000000    0.0000000000000000
     0.0000000000000000   15.0000000000000000    0.0000000000000000
     0.0000000000000000    0.0000000000000000   15.0000000000000000
 C   H   N  
   8   8   2
Cartesian
  5.7480590921288766  7.9629589462699508  8.8581930886250859
  5.9201444914325094  6.5656268326599330  9.0845089718381473
  7.1098849210129202  5.9946052735835957  9.4277173362034805
  6.6821900504086100  8.8955982870622332  9.1653659713093827
  7.9528357968369860  8.0002908454886281  7.1937522167745014
  7.9813466264863271  6.6237234661609277  7.1739032014376978
  9.0685769214081251  8.7312544829330427  7.6587963518910493
  6.9866220145288551  5.8384011841663277  6.5561457106100569
  5.1529583194939930  5.9330234378863338  8.6702965580319873
  7.9688945814932204  6.5788797513865775  9.7204268642497649
  7.2584002568471533  4.9131101539145812  9.4438722353798958
  4.9084770851210591  8.2659807665964085  8.2385164746936930
  7.6118899642005386  8.6391075074397037  9.6717252058153207
  6.5169210010440288  9.9670894751180050  9.0184693513061411
  7.2346082615679421  8.5370101323414431  6.5849505467322071
  8.8461657474527779  6.1455167667474129  7.6111485205009046
  9.9132806988499347  9.4010676162056033  8.1124835758707636
  6.1387202481679113  5.1353027628083341  6.1646570915488761
