 C  H  N                                
   1.00000000000000     
    15.0000000000000000    0.0000000000000000    0.0000000000000000
     0.0000000000000000   15.0000000000000000    0.0000000000000000
     0.0000000000000000    0.0000000000000000   15.0000000000000000
   C    H    N 
     8     8     2
Direct
  0.3735319371142407  0.5433177432473135  0.5909792869238819
  0.3693527544909204  0.4547634134503226  0.5814217758586930
  0.4486866232811177  0.3957903215505901  0.5666507492666970
  0.4596892255412772  0.5939573702722087  0.5854012973524794
  0.5277467302229600  0.5430499888102210  0.5274274623720793
  0.5391467712197308  0.4461859866903001  0.5633561927750542
  0.6127115004498060  0.5904987235347036  0.5245223579075075
  0.6026205756808521  0.3955163939414731  0.5095655842374874
  0.3047601194604844  0.4210504840147490  0.5836868110733143
  0.4525883804172631  0.3456395499399867  0.6203055043172013
  0.4395699932376431  0.3571133598501477  0.5047951774471615
  0.3125316687602666  0.5816069566865542  0.6018799636210740
  0.4882426998900793  0.6048597815125005  0.6524335605355956
  0.4490729531788670  0.6607327999636808  0.5570122248243465
  0.5016680850758417  0.5391264141540671  0.4587189242769814
  0.5667620797934250  0.4516216714013450  0.6313226425092853
  0.6795194894095046  0.6303824280432632  0.5243643660357006
  0.6500937116172845  0.3536131361560960  0.4643475767134767
 
  0.00000000E+00  0.00000000E+00  0.00000000E+00
  0.00000000E+00  0.00000000E+00  0.00000000E+00
  0.00000000E+00  0.00000000E+00  0.00000000E+00
  0.00000000E+00  0.00000000E+00  0.00000000E+00
  0.00000000E+00  0.00000000E+00  0.00000000E+00
  0.00000000E+00  0.00000000E+00  0.00000000E+00
  0.00000000E+00  0.00000000E+00  0.00000000E+00
  0.00000000E+00  0.00000000E+00  0.00000000E+00
  0.00000000E+00  0.00000000E+00  0.00000000E+00
  0.00000000E+00  0.00000000E+00  0.00000000E+00
  0.00000000E+00  0.00000000E+00  0.00000000E+00
  0.00000000E+00  0.00000000E+00  0.00000000E+00
  0.00000000E+00  0.00000000E+00  0.00000000E+00
  0.00000000E+00  0.00000000E+00  0.00000000E+00
  0.00000000E+00  0.00000000E+00  0.00000000E+00
  0.00000000E+00  0.00000000E+00  0.00000000E+00
  0.00000000E+00  0.00000000E+00  0.00000000E+00
  0.00000000E+00  0.00000000E+00  0.00000000E+00
