 C  H  N 
 1.0000000000000000
    15.0000000000000000    0.0000000000000000    0.0000000000000000
     0.0000000000000000   15.0000000000000000    0.0000000000000000
     0.0000000000000000    0.0000000000000000   15.0000000000000000
 C   H   N  
   8   8   2
Cartesian
  5.6152752031951163  8.1655230682884010  8.7520183305358117
  5.5592836201547398  6.8281307156949751  8.6662113605508857
  6.7709909027800768  5.9776348309858403  8.4893596973100376
  6.9280021211876779  8.8667130061076307  8.8204891415454707
  7.9350150526939487  8.1560474232277951  7.9044688632277715
  8.1044174694940807  6.7385758993024769  8.4802460325844002
  9.1575104483456204  8.9434279413376530  7.8618784369004588
  9.0530024099841153  5.8904495364145655  7.7716187732943300
  4.6023239017888953  6.3034076343401786  8.6548723226713395
  6.8347207441593021  5.1968736949695318  9.2535668135220241
  6.6923587703529090  5.4297123018882854  7.5509306097520730
  4.7017346227391670  8.7583941895232105  8.8141763032837748
  7.3694405870994517  8.8277801476310618  9.8256101617117704
  6.8288685820758896  9.9258591194083952  8.5885703830493423
  7.5789528779065538  8.0867885900062433  6.8737912431189203
  8.4887610411139338  6.8464006554034231  9.4965316979347438
 10.0143413426229362  9.7308950709202087  7.9107120175760635
  9.6414030043608712  5.0733539425136334  7.1866453775781922
