 C  H  N                                
   1.00000000000000     
    15.4022502898999996    0.0000000000000000    0.0000000000000000
     0.0000000000000000   15.4022502898999996    0.0000000000000000
     0.0000000000000000    0.0000000000000000   15.4022502898999996
   C    H    N 
     7     9     1
Direct
  0.3387934268038489  0.4396430136718953  0.5670170167596370
  0.3381868302402642  0.5260647073860117  0.5768035411869604
  0.4147730826999516  0.5828870890797965  0.5559093327448608
  0.4165113497677486  0.3890533236516724  0.5366667666911902
  0.4991891795131856  0.4441785454877755  0.5306410078804167
  0.4781703770879177  0.5353301215535022  0.4945714494793003
  0.5567930967070006  0.5861892263539019  0.4800716118540478
  0.2799417684065251  0.4025550643106650  0.5813670115167326
  0.4279509856566840  0.3340324551460932  0.5811122534113728
  0.4018441870377104  0.3589437203314053  0.4731528864786337
  0.2794373180181851  0.5584420988160630  0.6000573992745498
  0.4494347280853596  0.6015595603773299  0.6159016958317494
  0.3931986877668118  0.6441331389450967  0.5259759301496982
  0.5479975100717932  0.4120581462939954  0.4896258593534103
  0.5283917724234926  0.4521628321832129  0.5954568785386229
  0.4458996840486406  0.5276758129289457  0.4308972116444603
  0.6198703376583894  0.6269301591819378  0.4695114830111047
 
  0.00000000E+00  0.00000000E+00  0.00000000E+00
  0.00000000E+00  0.00000000E+00  0.00000000E+00
  0.00000000E+00  0.00000000E+00  0.00000000E+00
  0.00000000E+00  0.00000000E+00  0.00000000E+00
  0.00000000E+00  0.00000000E+00  0.00000000E+00
  0.00000000E+00  0.00000000E+00  0.00000000E+00
  0.00000000E+00  0.00000000E+00  0.00000000E+00
  0.00000000E+00  0.00000000E+00  0.00000000E+00
  0.00000000E+00  0.00000000E+00  0.00000000E+00
  0.00000000E+00  0.00000000E+00  0.00000000E+00
  0.00000000E+00  0.00000000E+00  0.00000000E+00
  0.00000000E+00  0.00000000E+00  0.00000000E+00
  0.00000000E+00  0.00000000E+00  0.00000000E+00
  0.00000000E+00  0.00000000E+00  0.00000000E+00
  0.00000000E+00  0.00000000E+00  0.00000000E+00
  0.00000000E+00  0.00000000E+00  0.00000000E+00
  0.00000000E+00  0.00000000E+00  0.00000000E+00
