 N  C  H 
 1.0000000000000000
    21.6910999999999987    0.0000000000000000    0.0000000000000000
     0.0000000000000000   17.1871000000000009    0.0000000000000000
     0.0000000000000000    0.0000000000000000   16.8088000000000015
 N   C   H  
   1   4  11
Cartesian
  8.1931643399999992  8.3104325600000006  8.6070346799999999
 10.7868813100000001  8.1259754700000002  8.2713391400000003
 12.0748524199999991  8.9929823700000000  8.5147478299999992
  9.4948222900000001  8.9897750599999995  8.2196413499999998
 13.3583261199999992  8.1836124899999998  8.3810139199999991
 10.9078966099999999  7.4555763800000001  7.4294004999999999
 10.6447855199999992  7.4854613499999996  9.2001502500000001
 12.0187948799999997  9.2709592099999991  9.5927451700000006
 12.1542224300000008  9.9795797099999994  7.9355234499999998
  9.6087787000000002  9.7958252199999993  8.9177859599999998
  9.3694492999999994  9.4844875900000005  7.2299342700000002
 14.2218885799999999  8.7599958900000008  8.7255925399999992
 13.2820648400000003  7.2534324699999999  8.9044862200000008
 13.5828419199999999  7.9505172100000001  7.3293081899999999
  8.1774389599999999  8.1862375400000005  9.6413679900000009
  8.3690909300000005  7.3416814600000002  8.3446892699999999
