 C  H  N 
 1.0000000000000000
    15.0000000000000000    0.0000000000000000    0.0000000000000000
     0.0000000000000000   15.0000000000000000    0.0000000000000000
     0.0000000000000000    0.0000000000000000   15.0000000000000000
 C   H   N  
   8   8   2
Cartesian
  5.5863594615513694  8.1144445996360943  8.7426132882271332
  5.5463907136263666  6.7814207440178569  8.6231090096981848
  6.8204507266580858  6.0341900850027637  8.8496153492443437
  6.9333365119030903  8.7502544582832602  8.9337934025601093
  7.8470624629028665  8.1641372980314078  7.8278605863027195
  8.0756603761802612  6.6860921120724628  8.1930849156502727
  9.0807834638997331  8.9185165145012242  7.7107712750612496
  8.5507281059745814  5.8377101023287477  7.1160645161035276
  4.6527392011343967  6.2210774164397709  8.3412697953713586
  7.0593574690644489  6.0511282954626431  9.9212923537736391
  6.7423852582633126  4.9841782005981559  8.5894030354021425
  4.7151601218210661  8.7596062277144497  8.6280801927355206
  7.4088381204648641  8.4929772887545472  9.8874623378993824
  6.8910143666299968  9.8346967619556942  8.8890992719105899
  7.3678266792996832  8.2394984663042354  6.8444824785977927
  8.8519257047263693  6.6975935443254446  8.9634033399834827
 10.0093642450088911  9.6193038104977919  7.6788140813065517
  8.7832630967849958  5.0228427099816804  6.3170288065855678
