 C  H  N 
 1.0000000000000000
    15.4022502898999996    0.0000000000000000    0.0000000000000000
     0.0000000000000000   15.4022502898999996    0.0000000000000000
     0.0000000000000000    0.0000000000000000   15.4022502898999996
 C   H   N  
   7   9   1
Cartesian
  5.2527604767179543  6.7687254075058547  8.8290691838903594
  5.1619853334887420  8.1791427735147639  8.8778434320396933
  6.2494448073315114  8.9913182222828780  8.7277738200924109
  6.4464022051747927  6.1203473397803538  8.6157952921422272
  7.0107158604776592  6.7638557067854927  6.6119340826203308
  7.0153012540138162  8.1388870868467293  6.5195690024720134
  8.2030258462895347  8.8980393880758601  6.6069037527679253
  4.3271292237998873  6.1996778775730359  8.7588188731923644
  7.3842530997403051  6.5782587276702476  8.9103964176827581
  6.4648113886377949  5.0437958895433912  8.4722211288102116
  4.1675136163742144  8.6210711764940076  8.8600376025971936
  7.2580865958997691  8.6182087376653627  8.8696464842789240
  6.1492645063621119 10.0687898466592269  8.6033882365077226
  6.1609952838271473  6.1995577146030829  6.2530931109915455
  7.9622312928599994  6.2397473984590306  6.6616975265450566
  6.1224576590858097  8.6834441233714461  6.2403582009784540
  9.1711387317432305  9.5518588823158517  6.6903973923145932
