 C  H  N                                
   1.00000000000000     
    15.4022502898999996    0.0000000000000000    0.0000000000000000
     0.0000000000000000   15.4022502898999996    0.0000000000000000
     0.0000000000000000    0.0000000000000000   15.4022502898999996
   C    H    N 
     7     9     1
Direct
  0.3369278038734247  0.4381352040747471  0.5799073462741259
  0.3325476261383397  0.5328314306470994  0.5822757375860392
  0.4002861103286198  0.5879777740236458  0.5787899422993843
  0.4094830410181476  0.3895626925066105  0.5751938438777955
  0.4621560004800782  0.4404763182127898  0.3944386825806700
  0.4596906976664803  0.5277183097217713  0.3954249909227598
  0.5351516564718376  0.5802106079234661  0.4047208670248655
  0.2742581996039764  0.4045831133633937  0.5796495946458631
  0.4742806626743444  0.4182594387943867  0.5764718739852872
  0.4061856347056860  0.3189833596203172  0.5707320772750690
  0.2670864832577388  0.5604236678192769  0.5848343326397094
  0.4674958403545889  0.5655683152852649  0.5769170820945003
  0.3906946028202847  0.6581120602344133  0.5778621363143681
  0.4027175176226612  0.4028318842822422  0.3878432862400865
  0.5231603000273084  0.4049676433599881  0.4001725536576165
  0.3981873662415391  0.5626792536793931  0.3909215863736754
  0.5962466756691772  0.6247172537384498  0.4128722608546981
 
  0.00000000E+00  0.00000000E+00  0.00000000E+00
  0.00000000E+00  0.00000000E+00  0.00000000E+00
  0.00000000E+00  0.00000000E+00  0.00000000E+00
  0.00000000E+00  0.00000000E+00  0.00000000E+00
  0.00000000E+00  0.00000000E+00  0.00000000E+00
  0.00000000E+00  0.00000000E+00  0.00000000E+00
  0.00000000E+00  0.00000000E+00  0.00000000E+00
  0.00000000E+00  0.00000000E+00  0.00000000E+00
  0.00000000E+00  0.00000000E+00  0.00000000E+00
  0.00000000E+00  0.00000000E+00  0.00000000E+00
  0.00000000E+00  0.00000000E+00  0.00000000E+00
  0.00000000E+00  0.00000000E+00  0.00000000E+00
  0.00000000E+00  0.00000000E+00  0.00000000E+00
  0.00000000E+00  0.00000000E+00  0.00000000E+00
  0.00000000E+00  0.00000000E+00  0.00000000E+00
  0.00000000E+00  0.00000000E+00  0.00000000E+00
  0.00000000E+00  0.00000000E+00  0.00000000E+00
