 C  H  N 
 1.0000000000000000
    15.4022502898999996    0.0000000000000000    0.0000000000000000
     0.0000000000000000   15.4022502898999996    0.0000000000000000
     0.0000000000000000    0.0000000000000000   15.4022502898999996
 C   H   N  
   7   9   1
Cartesian
  5.2033341647934845  6.7477389422569027  8.8817779600649409
  5.1352305536385838  8.1955650408355663  8.9136963121387875
  6.1998220822701890  9.0085499997359566  8.7978633492448939
  6.3422284192604135  6.0445050100113908  8.7383215856810388
  7.0688434035441778  6.7868867683034448  6.2715812548824168
  7.0369052186380339  8.1315782668839827  6.2883908419185239
  8.2086422896062761  8.9277501640752632  6.3455933817398957
  4.2456687337376486  6.2270705829768076  8.8744883539957655
  7.2984664984115559  6.5570208406565635  8.7557560463943869
  6.3589166083508486  4.9669488368383323  8.5969353263291737
  4.1362519606779209  8.6276815015988042  8.9283309876368051
  7.2114229253419007  8.6113850799619840  8.7589970146373997
  6.1145415723566163 10.0882301618625334  8.7084491009060248
  6.1558005823628976  6.2081364108874384  6.2453914493867941
  8.0068529065917549  6.2423622799263621  6.2942194288405782
  6.1005759859286304  8.6784173521762114  6.2955698148168526
  9.1587554859112412  9.6077648903759094  6.4080123865060576
