 N  C  H 
 1.0000000000000000
    21.6910999999999987    0.0000000000000000    0.0000000000000000
     0.0000000000000000   17.1871000000000009    0.0000000000000000
     0.0000000000000000    0.0000000000000000   16.8088000000000015
 N   C   H  
   1   4  11
Cartesian
  8.3319999999999990  8.1707000000000001  8.3996000000000013
 10.7829999999999995  8.1566000000000010  8.3981000000000012
 12.0418999999999983  9.0246000000000013  8.3915000000000006
  9.5198999999999998  9.0160000000000000  8.4143000000000008
 13.3036999999999992  8.1766000000000005  8.4111000000000011
 10.7817999999999987  7.5090000000000003  7.5121000000000002
 10.7962999999999987  7.5000000000000009  9.2773000000000003
 12.0421999999999993  9.6871000000000009  9.2649000000000008
 12.0495999999999999  9.6625000000000014  7.5000000000000009
  9.5038999999999998  9.6497000000000011  9.3078000000000003
  9.5002999999999993  9.6734000000000009  7.5385000000000009
 14.1910999999999987  8.8173000000000012  8.4047999999999998
 13.3424999999999994  7.5515000000000008  9.3088000000000015
 13.3504999999999985  7.5228000000000002  7.5344000000000007
  7.4999999999999991  8.7559000000000005  8.4631000000000007
  8.3249999999999993  7.5736000000000008  9.2256000000000000
