 N  C  H 
 1.0000000000000000
    26.8076000000000008    0.0000000000000000    0.0000000000000000
     0.0000000000000000   17.2400999999999982    0.0000000000000000
     0.0000000000000000    0.0000000000000000   16.8814999999999991
 N   C   H  
   1   8  19
Cartesian
 18.4263845699999997  8.0747811400000007  8.9572573299999991
 13.4761912800000001  8.3907028199999996  7.6989587600000000
 12.1901047299999998  9.1663651500000007  8.1245954400000002
 14.8634877099999994  9.1541501600000004  7.8669152799999997
 10.9434509799999997  8.2597590299999997  8.3668472299999994
 15.9249967300000002  8.2482969500000003  8.5023897300000009
  9.6824481900000006  9.0008330700000005  8.8384142099999998
 17.3077172300000015  8.9024645800000002  8.5795071000000007
  8.4784273300000006  8.0342442399999996  8.8490486399999995
 13.5679701099999992  7.4315077000000000  8.2240752300000004
 13.2739954299999994  8.0874860000000002  6.6562243399999996
 11.9021250999999992 10.0528896599999999  7.3149186799999999
 12.4206360000000000  9.6987882200000008  9.0664856100000009
 15.2320188800000000  9.5897116800000006  6.9394149100000000
 14.6177250500000007  9.9588671200000007  8.6644645600000008
 11.1172997500000008  7.4782764600000000  9.1609390099999999
 10.7168167299999997  7.6778177799999998  7.4059128799999998
 15.5745313500000009  7.9542524900000000  9.5246891500000004
 16.0337452999999996  7.2787818499999997  7.9787968999999999
  9.5520556800000005  9.8942542400000004  8.1302732500000001
  9.8894093800000000  9.4122904799999993  9.8039713299999995
 17.1989165200000009  9.8241012100000003  9.2676815000000001
 17.4381738000000013  9.2631556300000000  7.4936121499999997
  8.1923432199999997  7.6725810599999997  7.8363591899999996
  7.5476830100000001  8.5208485300000003  9.2206393099999993
  8.6404729200000006  7.1768840000000003  9.5383933100000000
 19.2726959999999998  8.6464768700000008  9.1013666200000003
 18.5574024000000009  7.2640640999999997  8.3518216200000008
