 C  H  N 
 1.0000000000000000
    15.0000000000000000    0.0000000000000000    0.0000000000000000
     0.0000000000000000   15.0000000000000000    0.0000000000000000
     0.0000000000000000    0.0000000000000000   15.0000000000000000
 C   H   N  
   8   8   2
Cartesian
  5.6373405039273976  8.0453877506891960  9.0274310503373716
  5.7351742807278780  6.6536527863545496  9.0315114518154136
  6.9661517425535493  6.0204425419080989  9.1511658072996127
  6.7525386309208937  8.8532055121846565  9.1003253586203137
  7.9524539219455512  8.0260493352148181  7.2688898940124220
  8.0588755042702545  6.6292503237866489  7.4679368974381894
  9.0587505086942581  8.8530633970821579  7.5727225800723268
  7.3820122132072763  5.6796611817101708  6.6524003412989323
  4.8671727549039314  6.0696866620294019  8.7279957645739206
  7.7446592893949973  6.4777700992019529  9.7531592673720411
  7.0086364004080810  4.9412409319224473  9.0212656559757267
  4.6814483639430344  8.4959576172737314  8.7722167779862996
  7.6647619762157744  8.5092527292728466  9.5744240684103570
  6.6564623303580355  9.9304212840611257  8.9772910042680643
  7.2015542756186539  8.4176556298704774  6.5950453492068410
  9.0153466036268970  6.2769399326354334  7.8533496173256534
  9.9669466562094104  9.5269011852192627  7.8777209327728785
  6.8262394036404173  4.8212827804194216  6.0863929707010893
