 C  H  N                                
   1.00000000000000     
    15.4022502898999996    0.0000000000000000    0.0000000000000000
     0.0000000000000000   15.4022502898999996    0.0000000000000000
     0.0000000000000000    0.0000000000000000   15.4022502898999996
   C    H    N 
     7     9     1
Direct
  0.3350080318151332  0.4398050987928404  0.5653370675522259
  0.3319424465461831  0.5267436945644477  0.5680326417256094
  0.4142887497325882  0.5764047425721855  0.5516673887716026
  0.4210956708633553  0.3971264294355384  0.5484505217541884
  0.4692546700336773  0.4392145661191416  0.4710750707292099
  0.4582842665100910  0.5400289326658270  0.4681814182757160
  0.5408480254298969  0.5834475812034119  0.4514365945594054
  0.2770336474001051  0.4002230223543068  0.5754285750987942
  0.4620556999882339  0.4040771930580583  0.6070477836401212
  0.4143955358386085  0.3269818442733985  0.5372378357543969
  0.2715351260131463  0.5618462556564191  0.5801138067396293
  0.4599056233074388  0.5683969763787156  0.6065077807449275
  0.4028740339413726  0.6464161614233987  0.5445090765105093
  0.4440861399603693  0.4121686438506209  0.4100150995316053
  0.5385071126192685  0.4222599755477189  0.4741498402134721
  0.4149934390811406  0.5566561365044600  0.4136368810433002
  0.6072005420057025  0.6179626545032543  0.4388596023555599
 
  0.00000000E+00  0.00000000E+00  0.00000000E+00
  0.00000000E+00  0.00000000E+00  0.00000000E+00
  0.00000000E+00  0.00000000E+00  0.00000000E+00
  0.00000000E+00  0.00000000E+00  0.00000000E+00
  0.00000000E+00  0.00000000E+00  0.00000000E+00
  0.00000000E+00  0.00000000E+00  0.00000000E+00
  0.00000000E+00  0.00000000E+00  0.00000000E+00
  0.00000000E+00  0.00000000E+00  0.00000000E+00
  0.00000000E+00  0.00000000E+00  0.00000000E+00
  0.00000000E+00  0.00000000E+00  0.00000000E+00
  0.00000000E+00  0.00000000E+00  0.00000000E+00
  0.00000000E+00  0.00000000E+00  0.00000000E+00
  0.00000000E+00  0.00000000E+00  0.00000000E+00
  0.00000000E+00  0.00000000E+00  0.00000000E+00
  0.00000000E+00  0.00000000E+00  0.00000000E+00
  0.00000000E+00  0.00000000E+00  0.00000000E+00
  0.00000000E+00  0.00000000E+00  0.00000000E+00
